1103
Lattice="22.500000 0.0 0.0  0.0 22.500000 0.0  0.0 0.0 22.500000" Origin="-11.250000 -11.250000 -11.250000" a=3.5670Å diameter=1.00nm
CS -4.219806 1.130694 -0.772278
CS -4.219806 1.130694 0.772278
CS -3.842908 -0.275908 1.287130
CS -3.842908 -0.275908 2.831687
CS -3.466011 -1.682511 -2.831687
CS -3.466011 -1.682511 -1.287130
CS -3.190102 2.160398 1.287130
OS -3.190102 2.160398 2.831687
CS -3.089113 -3.089113 -0.772278
CS -3.089113 -3.089113 0.772278
OS -2.813204 0.753796 -2.831687
C -2.813204 0.753796 -1.287130
CS -2.813204 0.753796 3.346539
C -2.436306 -0.652806 -0.772278
C -2.436306 -0.652806 0.772278
CS -2.160398 3.190102 -2.831687
CS -2.160398 3.190102 -1.287130
CS -2.059408 -2.059408 -3.346539
C -2.059408 -2.059408 1.287130
OS -2.059408 -2.059408 2.831687
C -1.783500 1.783500 -0.772278
C -1.783500 1.783500 0.772278
CS -1.682511 -3.466011 -2.831687
CS -1.682511 -3.466011 -1.287130
CS -1.406602 0.376898 -3.346539
C -1.406602 0.376898 1.287130
C -1.406602 0.376898 2.831687
CS -1.130694 4.219806 -0.772278
CS -1.130694 4.219806 0.772278
C -1.029704 -1.029704 -2.831687
C -1.029704 -1.029704 -1.287130
CS -1.029704 -1.029704 3.346539
CS -0.753796 2.813204 -3.346539
C -0.753796 2.813204 1.287130
CS -0.753796 2.813204 2.831687
C -0.652806 -2.436306 -0.772278
C -0.652806 -2.436306 0.772278
C -0.376898 1.406602 -2.831687
C -0.376898 1.406602 -1.287130
CS -0.376898 1.406602 3.346539
CS -0.275908 -3.842908 1.287130
CS -0.275908 -3.842908 2.831687
N -0.000000 -0.000000 0.772278
OS 0.275908 3.842908 -2.831687
CS 0.275908 3.842908 -1.287130
CS 0.376898 -1.406602 -3.346539
C 0.376898 -1.406602 1.287130
C 0.376898 -1.406602 2.831687
C 0.652806 2.436306 -0.772278
C 0.652806 2.436306 0.772278
CS 0.753796 -2.813204 -2.831687
C 0.753796 -2.813204 -1.287130
CS 0.753796 -2.813204 3.346539
CS 1.029704 1.029704 -3.346539
C 1.029704 1.029704 1.287130
C 1.029704 1.029704 2.831687
CS 1.130694 -4.219806 -0.772278
CS 1.130694 -4.219806 0.772278
C 1.406602 -0.376898 -2.831687
C 1.406602 -0.376898 -1.287130
CS 1.406602 -0.376898 3.346539
CS 1.682511 3.466011 1.287130
CS 1.682511 3.466011 2.831687
C 1.783500 -1.783500 -0.772278
C 1.783500 -1.783500 0.772278
CS 2.059408 2.059408 -2.831687
C 2.059408 2.059408 -1.287130
CS 2.059408 2.059408 3.346539
CS 2.160398 -3.190102 1.287130
OS 2.160398 -3.190102 2.831687
C 2.436306 0.652806 -0.772278
C 2.436306 0.652806 0.772278
CS 2.813204 -0.753796 -3.346539
C 2.813204 -0.753796 1.287130
OS 2.813204 -0.753796 2.831687
CS 3.089113 3.089113 -0.772278
CS 3.089113 3.089113 0.772278
CS 3.190102 -2.160398 -2.831687
CS 3.190102 -2.160398 -1.287130
CS 3.466011 1.682511 1.287130
CS 3.466011 1.682511 2.831687
CS 3.842908 0.275908 -2.831687
CS 3.842908 0.275908 -1.287130
CS 4.219806 -1.130694 -0.772278
CS 4.219806 -1.130694 0.772278
H -4.485568 2.123444 -1.135482
H -4.946338 0.403827 -1.135482
O -5.522084 1.479638 1.248945
H -4.569575 -1.002575 0.923797
H -3.576689 -1.268536 3.194891
O -5.145163 0.073352 3.308184
H -3.731772 -0.689760 -3.194891
H -4.192542 -2.409377 -3.194891
O -4.768288 -1.333566 -0.810464
H -3.456081 3.153043 0.923797
H -3.815779 -3.815779 -1.135611
H -2.822893 -4.081740 1.135482
O -4.391367 -2.739852 1.248776
H -2.813204 0.753796 4.436539
O -2.509057 4.492518 -3.308184
H -2.886929 2.463236 -3.194891
O -3.462675 3.539046 -0.810464
O -2.059408 -2.059408 -4.776539
H -0.689760 -3.731772 -3.194891
H -2.409377 -4.192542 -3.194891
H -1.416532 -4.458656 -0.923797
O -1.406602 0.376898 -4.776539
H -1.396672 5.212451 -1.135611
O -2.433110 4.568466 1.248776
H -0.403827 4.946338 1.135482
H -1.029704 -1.029704 4.436539
O -0.753796 2.813204 -4.776539
H -1.746546 3.078965 3.194891
H -0.026929 3.539735 3.194891
O -0.376898 1.406602 4.776539
H -1.002575 -4.569575 0.923797
O 0.073352 -5.145163 3.308184
H -1.268536 -3.576689 3.194891
H 1.002575 4.569575 -0.923797
H 0.376898 -1.406602 -4.436539
H 1.746546 -3.078965 -3.194891
H 0.026929 -3.539735 -3.194891
H 0.753796 -2.813204 4.436539
O 1.029704 1.029704 -4.776539
H 2.123444 -4.485568 -1.135482
O 0.177098 -5.172962 -1.248776
H 1.396672 -5.212451 1.135611
H 1.406602 -0.376898 4.436539
O 1.333566 4.768288 0.810464
H 0.689760 3.731772 3.194891
O 2.636106 4.419166 3.308184
H 1.793189 3.052036 -3.194891
H 3.052036 1.793189 -3.194891
O 2.059408 2.059408 4.776539
H 3.153043 -3.456081 0.923797
H 2.813204 -0.753796 -4.436539
O 2.739852 4.391367 -1.248776
H 4.081740 2.822893 -1.135482
O 4.042446 4.042446 1.248945
O 4.492518 -2.509057 -3.308184
H 2.463236 -2.886929 -3.194891
O 3.539046 -3.462675 -0.810464
O 4.768288 1.333566 0.810464
H 3.731772 0.689760 3.194891
O 4.419166 2.636106 3.308184
H 3.576689 1.268536 -3.194891
O 5.145163 -0.073352 -3.308184
H 4.569575 1.002575 -0.923797
O 5.522084 -1.479638 -1.248945
H 4.485568 -2.123444 1.135482
H 4.946338 -0.403827 1.135482
H 3.836369 4.142962 2.181162
H 3.232264 -4.059950 -1.496574
H -4.015783 3.531655 -1.595076
H 0.217578 -5.025900 4.249765
H -1.041905 3.696843 -5.016903
H 5.058934 -0.074572 -4.264303
H -2.326323 0.242965 -5.016903
H 2.060618 2.988829 5.016903
H -5.078991 -0.666266 -1.426722
H 6.053120 -1.568527 -0.454150
H 3.506601 4.933719 -1.049901
H 0.654878 -5.682263 -1.907516
H -5.531683 2.439558 1.241105
H -2.336663 5.465234 1.577567
H -5.727993 -0.581216 2.916457
H 5.174565 2.107674 3.576012
H -4.905608 -3.545052 1.154909
H -1.983887 5.092579 -2.773654
H -1.917557 -2.977941 -5.016903
H 0.758282 5.126885 1.490211
H 2.415213 5.231475 2.846707
H 0.527450 1.811730 -5.016903
H -1.072614 2.022884 5.016903
H 4.424450 -2.443541 -4.263524
H 5.221798 0.986771 1.582254
OW 4.351974 8.391680 2.158382
HW 4.594219 7.466424 2.199184
HW 5.187821 8.857377 2.127874
OW 3.843363 0.945869 6.950695
HW 2.991470 1.171823 7.324418
HW 3.882481 -0.009221 7.002813
OW 4.746067 -2.662820 5.859623
HW 4.804581 -3.347328 6.526309
HW 5.336758 -2.953667 5.164687
OW 6.340059 -10.343608 2.153369
HW 5.432560 -10.398635 1.853600
HW 6.549433 -11.229953 2.448327
OW 0.450456 -10.634156 -0.963873
HW 0.534954 -10.172024 -0.129763
HW -0.294084 -11.222548 -0.837783
OW -2.024698 -9.864509 7.071489
HW -1.528968 -10.665875 6.902644
HW -1.522970 -9.175669 6.635354
OW 9.202471 -7.060262 -0.273573
HW 9.358695 -7.165258 0.665051
HW 8.631894 -6.294240 -0.337587
OW -6.254206 -8.930367 5.465241
HW -6.240293 -8.862557 4.510436
HW -5.368700 -8.687358 5.735926
OW -9.652239 5.051311 9.883768
HW -9.114165 4.440155 9.380370
HW -9.021518 5.635563 10.304821
OW -9.022387 8.585266 -3.306007
HW -8.745281 8.244810 -2.455274
HW -9.366559 9.457834 -3.114654
OW 5.566755 -5.626795 -1.123109
HW 6.236792 -4.943290 -1.105323
HW 6.053394 -6.435700 -1.282163
OW -1.226888 9.471900 4.419743
HW -1.843662 9.808539 5.069903
HW -1.630816 9.677961 3.576638
OW 11.024575 -4.845822 -2.827849
HW 10.333772 -4.598188 -3.442596
HW 10.556191 -5.141809 -2.047174
OW 7.972650 -1.777496 4.066738
HW 7.562356 -2.362878 3.430004
HW 8.880995 -2.075668 4.116224
OW -11.224830 7.304728 10.005802
HW -11.268654 7.642131 9.110993
HW -10.649211 7.916523 10.464948
OW 3.249947 -4.941774 -5.780113
HW 2.754019 -4.238488 -6.199503
HW 2.599246 -5.421290 -5.267183
OW 2.965064 3.781053 6.457014
HW 2.045638 3.960658 6.654097
HW 3.202570 4.437280 5.801726
OW 6.382434 -4.388795 1.992760
HW 7.161059 -4.916415 1.814421
HW 6.068876 -4.702954 2.840952
OW -8.531213 10.592203 -0.325197
HW -7.883250 11.271671 -0.138346
HW -9.267228 11.063521 -0.715821
OW 2.915253 7.127181 5.310070
HW 2.729878 7.958930 5.746274
HW 3.863903 7.129866 5.181621
OW -9.149117 -3.445074 7.577771
HW -9.580280 -4.118379 7.051269
HW -9.116230 -2.677960 7.006019
OW 9.750803 -1.185521 -9.180847
HW 9.790779 -1.674599 -8.358868
HW 8.978132 -0.627582 -9.090685
OW 10.051927 -9.214965 3.416783
HW 9.629012 -10.035967 3.164702
HW 10.098840 -9.252759 4.372196
OW 6.683769 0.825185 9.258305
HW 6.398126 1.193980 10.094273
HW 5.871245 0.648140 8.784063
OW 7.762523 11.308557 5.919374
HW 7.205834 10.783992 5.343724
HW 7.762638 10.833911 6.750732
OW 4.459701 -8.081525 -8.013897
HW 4.718202 -8.869635 -7.535875
HW 5.029170 -8.070031 -8.783324
OW 8.012309 -9.749654 -5.627869
HW 8.629678 -10.355188 -5.217224
HW 7.181203 -10.224632 -5.638021
OW -0.043181 -7.889408 1.289749
HW 0.613567 -8.281694 1.865283
HW -0.799992 -7.739505 1.856503
OW -9.707080 -6.149781 9.145319
HW -10.226780 -6.430214 8.391851
HW -9.497145 -6.961471 9.607414
OW -8.475319 -8.667203 7.320070
HW -8.213411 -9.587078 7.279070
HW -9.386154 -8.663748 7.025430
OW 6.057422 3.367319 -6.796198
HW 6.594034 2.606198 -7.017979
HW 5.539456 3.533412 -7.583960
OW -6.512487 2.926484 3.596313
HW -6.414530 2.218049 4.232684
HW -7.436053 2.898086 3.345984
OW -7.372812 -3.702179 10.434008
HW -7.181925 -3.540722 9.509920
HW -7.962428 -4.456349 10.428962
OW -7.810983 -8.220247 1.847631
HW -7.379553 -8.981815 1.459910
HW -7.591964 -7.496027 1.261131
OW -4.786834 -6.226234 -8.792563
HW -5.206049 -5.423455 -8.482322
HW -3.852277 -6.019175 -8.805764
OW -9.415056 -6.143690 -1.549589
HW -9.052648 -6.678412 -2.256113
HW -8.756112 -6.183638 -0.856306
OW 2.484823 0.724693 -8.923766
HW 2.608116 1.673850 -8.905172
HW 1.856560 0.550615 -8.222748
OW 4.584236 -9.772478 -1.697517
HW 4.672757 -8.819272 -1.694652
HW 3.650433 -9.926252 -1.841770
OW -6.614390 5.618863 -0.585141
HW -6.394554 4.701566 -0.748497
HW -7.537552 5.691229 -0.827998
OW 7.336779 -6.585580 -8.603886
HW 8.285161 -6.716018 -8.602565
HW 7.225404 -5.634783 -8.609068
OW 8.436647 2.482731 7.799928
HW 8.882746 2.544613 6.955173
HW 9.071830 2.057194 8.376041
OW 10.604825 -5.252403 -8.797890
HW 11.233851 -5.329694 -8.080397
HW 10.277663 -4.354969 -8.734469
OW -5.816102 -1.677562 -8.770330
HW -5.759735 -2.632547 -8.805994
HW -4.905094 -1.383984 -8.752357
OW 8.556345 8.834330 1.201414
HW 8.497257 7.923896 0.911477
HW 7.686758 9.196998 1.031895
OW 9.914279 7.515087 3.232314
HW 10.730003 7.403449 3.720757
HW 9.417143 6.716475 3.409852
OW -9.502316 -6.173941 -4.921639
HW -10.254195 -6.329459 -5.493423
HW -8.782201 -5.976349 -5.520669
OW 1.914498 -11.258149 2.781427
HW 1.065013 -11.258052 2.340044
HW 2.089948 -10.334983 2.964262
OW 5.313595 9.601096 6.949892
HW 5.556916 8.726192 6.646935
HW 4.417542 9.502784 7.272177
OW 8.118028 -5.600904 8.958240
HW 8.393107 -4.836618 9.464841
HW 8.877136 -5.814963 8.415673
OW -1.865567 4.913586 6.497535
HW -2.606605 4.521985 6.034982
HW -1.286241 4.176215 6.690174
OW -5.898288 10.339914 -2.709151
HW -6.831395 10.325124 -2.495756
HW -5.647825 9.417042 -2.754106
OW -0.606003 -9.433056 4.044226
HW 0.169709 -9.062111 4.465078
HW -0.612867 -10.349953 4.319359
OW 0.628841 -8.870631 -3.250452
HW -0.137026 -9.433133 -3.366578
HW 1.376740 -9.458410 -3.358190
OW 8.229358 -1.440538 9.456647
HW 8.832959 -2.137172 9.198169
HW 8.148508 -1.533187 10.406028
OW 1.869650 -4.805506 -10.049098
HW 1.404665 -5.585163 -10.353021
HW 2.497726 -4.613978 -10.745720
OW 1.558573 -7.393450 6.511607
HW 2.159535 -7.900889 5.965901
HW 0.970520 -8.046197 6.891819
OW -6.435484 6.051268 5.034128
HW -5.554746 5.682499 4.965166
HW -6.972976 5.495975 4.469153
OW 5.766320 -9.986885 7.804404
HW 5.659076 -9.671356 6.906972
HW 4.926670 -10.394417 8.017359
OW -2.149227 -10.445503 1.037445
HW -1.637091 -10.726889 1.795721
HW -2.660560 -9.701529 1.356013
OW -9.820915 -5.336892 2.127133
HW -8.885101 -5.183160 1.996505
HW -10.016269 -6.101740 1.585571
OW 3.957605 6.708829 -7.711110
HW 4.760895 6.193522 -7.636081
HW 4.258801 7.615750 -7.767856
OW -7.008647 3.002866 -3.098741
HW -7.761488 3.541800 -2.855379
HW -6.311287 3.633000 -3.280581
OW -6.342955 -5.949422 8.484168
HW -7.105450 -6.507253 8.329668
HW -5.705345 -6.227065 7.826283
OW -8.473107 6.853022 6.964156
HW -8.981795 6.650267 7.749377
HW -8.874182 6.323194 6.275050
OW -2.516437 7.761668 -7.093126
HW -2.967120 8.582216 -7.293201
HW -3.212344 7.104606 -7.072454
OW -3.034018 0.315230 7.461674
HW -2.537397 1.132733 7.500448
HW -2.777726 -0.158909 8.252845
OW 8.326117 6.770592 -4.507883
HW 7.695009 6.192698 -4.078714
HW 8.643513 7.341247 -3.807841
OW 10.641231 -0.371028 -1.536964
HW 10.941230 0.280839 -2.170616
HW 9.692278 -0.404822 -1.658578
OW -7.380855 -8.718884 10.834284
HW -6.573485 -9.111178 11.167005
HW -7.291967 -7.785726 11.028604
OW 4.156530 -4.489260 -8.556060
HW 4.750213 -4.164396 -9.233148
HW 4.505670 -5.349797 -8.323633
OW 8.756470 0.035511 1.166361
HW 7.935194 -0.335130 1.489742
HW 9.368676 -0.700456 1.167468
OW -8.694101 5.018998 2.128752
HW -7.789802 5.185898 1.862608
HW -9.201197 5.102660 1.321102
OW 7.245348 8.038664 4.461760
HW 7.427297 8.590766 3.701153
HW 6.407005 7.622362 4.260968
OW -10.654906 3.048958 -3.981981
HW -11.251048 2.868592 -4.708980
HW -11.146762 2.797060 -3.200271
OW 2.212966 -1.923474 11.261068
HW 1.331538 -1.560239 11.173942
HW 2.433064 -2.232450 10.382128
OW -6.805737 4.358337 -5.885806
HW -7.697352 4.454017 -5.550677
HW -6.509198 5.255693 -6.038327
OW 9.394170 5.296578 9.856749
HW 8.689726 5.934392 9.972492
HW 8.943233 4.468523 9.691142
OW -9.496178 -1.845916 9.787683
HW -10.221464 -1.471189 10.287668
HW -8.731571 -1.335735 10.055145
OW -8.250372 -7.077450 5.087505
HW -8.038094 -6.805963 4.194377
HW -7.684154 -6.540799 5.642344
OW -6.009077 8.107483 -7.373817
HW -5.773656 7.900822 -6.469210
HW -5.963982 7.267748 -7.831264
OW 3.738398 4.307325 -5.655811
HW 3.333192 5.164472 -5.523329
HW 3.150348 3.854905 -6.260755
OW 1.287757 6.596621 -4.371526
HW 0.617568 7.270406 -4.486875
HW 2.041709 7.066719 -4.015144
OW 9.508346 11.301419 -7.955507
HW 10.154194 11.104020 -7.277009
HW 9.626046 10.610079 -8.607151
OW 4.459990 10.903282 -6.821131
HW 4.018499 10.336645 -7.453945
HW 5.064596 10.322028 -6.359567
OW 9.369127 9.932207 11.240808
HW 9.434015 8.977107 11.236542
HW 10.277496 10.234378 11.238865
OW -2.712089 -9.606132 -4.510151
HW -3.669218 -9.600559 -4.527964
HW -2.471223 -10.475022 -4.831801
OW -3.738550 4.675422 -8.306556
HW -4.632297 4.957178 -8.502195
HW -3.199716 5.110776 -8.967290
OW -4.875983 2.179475 9.366734
HW -4.941857 2.433203 10.287456
HW -4.870004 1.222297 9.381509
OW -5.773878 -3.506341 6.377933
HW -6.598621 -3.903646 6.657919
HW -5.930023 -3.243479 5.470758
OW -2.243918 7.334978 -4.129954
HW -3.163003 7.446400 -3.886413
HW -1.969663 8.200355 -4.433851
OW -3.606239 7.515960 -1.173386
HW -4.429100 7.079013 -1.393435
HW -3.865159 8.402776 -0.922460
OW 8.931719 5.606251 -1.694085
HW 9.577000 5.004910 -2.066169
HW 8.148849 5.069952 -1.567822
OW -6.457642 -7.147073 -3.035030
HW -6.305613 -6.765011 -2.170530
HW -6.351775 -6.415059 -3.642806
OW 5.921132 6.499971 -10.413182
HW 6.207964 7.141930 -11.062844
HW 4.976468 6.637286 -10.341078
OW 1.950592 9.480246 -5.856555
HW 2.567373 9.597911 -5.133935
HW 2.206614 8.649558 -6.257622
OW 6.391123 5.632300 7.281606
HW 6.695369 6.412156 7.746045
HW 6.103856 5.957978 6.428460
OW 5.634850 -3.325750 -5.586535
HW 5.733804 -3.801509 -6.411342
HW 5.684052 -4.002887 -4.911619
OW 2.177580 -4.174620 7.016568
HW 2.315025 -3.501863 7.683615
HW 1.258950 -4.078712 6.764841
OW 10.690711 -3.712447 10.473521
HW 11.245057 -3.854556 11.240951
HW 11.242524 -3.956865 9.730414
OW 6.488330 10.464605 -3.383484
HW 7.267225 10.178773 -3.861048
HW 5.810796 9.835185 -3.630919
OW 9.987187 -10.653392 -2.201523
HW 10.709794 -11.134719 -1.798275
HW 9.249367 -11.262844 -2.176340
OW -5.868490 -0.558851 -5.404344
HW -5.472866 -1.115534 -6.075187
HW -6.575150 -1.090446 -5.037625
OW -7.199312 2.837548 -10.695391
HW -8.052322 3.224375 -10.893344
HW -7.211994 2.700715 -9.747995
OW 8.227175 -9.239733 8.777650
HW 8.916892 -9.513275 9.382554
HW 8.004124 -8.350823 9.054295
OW 9.744515 -1.047698 6.843576
HW 10.696454 -0.993108 6.928885
HW 9.458109 -0.137611 6.765103
OW -11.063916 -3.720748 -5.807030
HW -11.260775 -3.083746 -6.493994
HW -10.136390 -3.585111 -5.612752
OW -6.650945 5.388152 8.479547
HW -6.467614 4.458915 8.618663
HW -6.105835 5.630763 7.730922
OW -11.228432 5.177402 -7.568314
HW -10.499319 4.861398 -7.034479
HW -11.187756 6.130621 -7.489805
OW -0.166901 -10.561261 -9.632318
HW 0.249158 -10.434833 -10.485169
HW -0.809922 -11.255007 -9.779577
OW -5.271012 6.791855 2.008537
HW -4.641695 7.259074 1.458890
HW -5.126401 5.867428 1.806133
OW -5.177736 -7.675867 -5.785588
HW -4.634753 -6.888915 -5.737425
HW -5.978390 -7.388387 -6.224625
OW 2.223192 -10.355787 9.828735
HW 2.862406 -11.065216 9.761203
HW 2.475170 -9.739550 9.140837
OW 10.483625 -8.284915 -3.507631
HW 11.069375 -7.549345 -3.327970
HW 10.190799 -8.144006 -4.408099
OW -1.780464 -5.725699 11.117583
HW -1.882064 -5.920952 10.185919
HW -2.311604 -4.941668 11.257690
OW -10.691505 10.217015 1.716473
HW -11.305216 10.403006 1.005691
HW -11.207663 9.727597 2.357173
OW -9.852700 0.091565 0.293473
HW -10.405348 -0.510222 0.792349
HW -9.087859 -0.430470 0.050691
OW 10.431594 -8.249699 7.466448
HW 10.353218 -7.674447 6.705273
HW 10.405676 -9.134579 7.102085
OW -6.627808 1.934628 -7.172486
HW -5.834451 1.898400 -6.637962
HW -6.764342 1.031986 -7.460655
OW -7.016550 8.304745 -0.154907
HW -6.360334 8.956670 0.091707
HW -7.361441 7.984314 0.678650
OW 8.436961 4.740085 -6.913651
HW 8.985294 4.653558 -6.133722
HW 8.457837 5.674863 -7.119075
OW 5.686987 -7.714870 1.311077
HW 6.616949 -7.532298 1.175857
HW 5.272011 -6.852225 1.320216
OW 7.496880 -2.295486 -3.555614
HW 6.962708 -2.686742 -2.864222
HW 8.373148 -2.653844 -3.413561
OW -9.405847 10.768628 4.774610
HW -9.605674 11.284939 5.555594
HW -9.718562 11.305003 4.045942
OW -10.966626 -1.183733 3.443018
HW -10.870257 -1.389102 4.373062
HW -10.971000 -2.036595 3.008218
OW 5.192150 9.963036 -0.444293
HW 4.429831 10.374421 -0.036767
HW 5.864373 10.644597 -0.438376
OW -3.383086 -3.286143 -7.476853
HW -4.057380 -3.536456 -6.845097
HW -2.665813 -2.947732 -6.940715
OW 8.716913 -5.201801 4.129853
HW 8.097020 -4.743349 4.697302
HW 8.480034 -6.125631 4.212746
OW 10.141857 -4.174686 1.975327
HW 10.229703 -4.597220 1.120814
HW 9.502982 -3.476102 1.832971
OW 11.259680 4.471554 7.210029
HW 11.143987 5.263203 7.735721
HW 11.188752 3.753396 7.839047
OW -6.301135 -5.061815 2.929056
HW -6.040097 -5.372067 2.061849
HW -6.221701 -4.109227 2.876987
OW -3.645517 7.939660 9.188435
HW -4.214388 8.560551 8.733105
HW -4.176100 7.147627 9.275671
OW -3.917525 4.525368 -5.481600
HW -3.005464 4.756528 -5.658103
HW -4.133611 4.998240 -4.677769
OW -9.876922 0.426290 8.282396
HW -10.052801 1.312251 7.965246
HW -9.340094 0.028274 7.596944
OW -4.686651 10.475704 -5.335340
HW -4.410439 10.668163 -6.231505
HW -4.197273 9.688092 -5.097390
OW 4.334975 10.785490 4.004101
HW 4.554610 11.268654 4.800818
HW 3.845467 10.023057 4.313169
OW 9.563183 2.140825 -0.626900
HW 10.452030 2.496209 -0.616998
HW 9.237292 2.334190 -1.506019
OW 9.477972 1.115894 -5.883801
HW 9.157790 1.914624 -6.303275
HW 9.875666 0.614052 -6.595447
OW -0.859535 3.914015 11.238135
HW 0.082210 4.085868 11.232803
HW -1.261715 4.782383 11.263288
OW -3.429260 -10.768397 3.908951
HW -3.335232 -10.206727 4.678451
HW -4.329395 -10.625395 3.616118
OW -8.803921 7.811520 -6.423476
HW -8.357164 7.273865 -5.769427
HW -8.679033 7.340229 -7.247328
OW 9.446557 2.364845 -9.037768
HW 9.760819 3.236595 -8.797486
HW 10.232926 1.818899 -9.041310
OW -0.219663 -3.501374 -8.388199
HW -0.252434 -3.223935 -9.303840
HW 0.666997 -3.280996 -8.102347
OW 4.148679 -9.643923 -4.910207
HW 4.672597 -8.852310 -4.786502
HW 4.598689 -10.312586 -4.393654
OW 2.976866 9.042303 -2.346366
HW 3.765288 8.502756 -2.285330
HW 3.303906 9.927832 -2.505513
OW 10.623314 4.516825 4.535450
HW 9.898647 4.092357 4.075961
HW 11.262762 4.708841 3.849388
OW -7.066080 -0.748213 5.266636
HW -6.203603 -0.404084 5.033926
HW -7.608433 0.030208 5.394533
OW -2.733730 7.160242 3.655398
HW -1.810775 6.932623 3.542311
HW -3.181135 6.317323 3.731301
OW 8.495597 -2.633582 -0.582381
HW 8.593236 -3.553980 -0.826882
HW 7.694931 -2.608244 -0.058228
OW 7.623468 -6.252150 -3.531960
HW 7.621524 -5.298172 -3.452170
HW 8.413134 -6.530109 -3.067621
OW 10.260492 -4.191851 6.355304
HW 10.200360 -3.736547 7.195260
HW 10.562203 -3.522697 5.740773
OW -6.250374 -0.630110 7.889943
HW -6.949377 -1.280253 7.961737
HW -5.443236 -1.144862 7.888222
OW 0.084575 -3.394760 9.549145
HW -0.770222 -3.616419 9.179504
HW 0.142704 -3.917140 10.349260
OW 7.641093 -0.984334 -6.710477
HW 7.189426 -1.627233 -7.257399
HW 8.191166 -1.508767 -6.128382
OW 9.756040 9.921336 4.629422
HW 9.535894 9.295367 5.319453
HW 10.277904 10.591477 5.071025
OW -11.040214 1.157804 5.395626
HW -10.099626 1.180929 5.218982
HW -11.265609 2.062225 5.613945
OW -7.543153 -2.675405 0.415911
HW -7.843789 -2.532822 1.313538
HW -7.314170 -3.604391 0.384323
OW 2.005154 -6.357742 -7.783418
HW 1.152250 -5.947708 -7.638944
HW 1.965257 -7.175573 -7.287429
OW 10.742905 10.469489 -4.579718
HW 11.267414 9.856008 -5.094477
HW 11.256302 11.277467 -4.573393
OW -0.254252 10.385248 -7.228040
HW -1.146512 10.707507 -7.099720
HW -0.355706 9.441613 -7.353361
OW -8.833820 3.404313 6.224101
HW -7.944107 3.736227 6.345298
HW -9.099741 3.738122 5.367186
OW -2.408812 1.652480 11.021699
HW -1.812950 1.360204 10.331795
HW -2.898498 0.866568 11.264589
OW -9.345501 0.262442 -9.765768
HW -10.245206 0.280232 -10.092355
HW -8.819965 0.598209 -10.492071
OW -10.571033 9.112645 -8.724403
HW -10.904327 8.839224 -7.869651
HW -10.810384 8.398212 -9.314947
OW -3.065199 10.357889 -2.682941
HW -3.158715 11.226842 -2.292273
HW -2.206846 10.053399 -2.388049
OW -1.392313 -0.929080 -8.306236
HW -1.967639 -0.411950 -7.742301
HW -0.518498 -0.805608 -7.935228
OW -1.918547 8.978916 0.932647
HW -1.000124 9.241907 0.871170
HW -1.889860 8.026104 1.020804
OW 6.192633 0.616131 5.525023
HW 6.849943 0.539181 6.216736
HW 6.001866 -0.287702 5.273748
OW -2.518198 10.533032 9.623510
HW -1.947304 10.095456 8.991804
HW -2.393351 10.045288 10.437736
OW -5.542360 5.779407 11.230610
HW -6.436220 5.436855 11.219728
HW -4.987405 5.000425 11.271316
OW 7.658232 3.919716 -10.432835
HW 7.249475 4.225533 -9.622996
HW 7.277790 3.053915 -10.581488
OW 3.712547 8.430990 10.178021
HW 2.924192 8.686548 9.698822
HW 4.341346 9.129299 9.995205
OW -1.445814 -5.452315 -6.888085
HW -2.320665 -5.647971 -6.552229
HW -0.997550 -5.027405 -6.156678
OW -1.510399 2.264697 -8.174778
HW -1.881190 2.582649 -7.351452
HW -1.395056 3.052657 -8.706060
OW 3.326343 -8.021403 11.203987
HW 3.554084 -7.091581 11.200908
HW 2.373483 -8.034704 11.295239
OW -5.036785 -8.653567 8.932921
HW -4.334507 -8.623522 8.283038
HW -5.808969 -8.929801 8.439088
OW 2.908957 3.330000 9.846946
HW 3.487200 3.281263 10.608330
HW 3.491170 3.214960 9.095788
OW -8.920153 -8.683145 -5.984592
HW -8.237299 -8.663639 -5.313940
HW -9.692675 -9.020172 -5.530645
OW -8.625335 -4.560485 -7.872700
HW -8.183387 -3.757730 -7.595730
HW -7.916569 -5.188768 -8.011825
OW -5.447137 -5.746991 11.075658
HW -5.060650 -4.903650 11.311981
HW -4.700987 -6.289733 10.820439
OW 4.485416 -5.556749 4.920801
HW 3.595689 -5.204175 4.897928
HW 4.382587 -6.445507 5.261359
OW -8.461245 0.908237 -4.940227
HW -9.350287 0.722196 -4.637839
HW -8.462691 1.847312 -5.126187
OW -4.597003 2.650620 6.493909
HW -5.143153 1.879358 6.646618
HW -5.219121 3.374653 6.421858
OW 0.836190 9.528529 7.539162
HW -0.019269 9.545343 7.109800
HW 0.975387 8.607649 7.760635
OW 5.847167 5.543115 0.087504
HW 6.414147 6.064251 0.656182
HW 5.132052 6.135197 -0.145938
OW 6.436815 -8.759747 4.402138
HW 6.362910 -7.908872 3.969710
HW 7.361816 -8.991774 4.318574
OW -3.174672 7.752557 6.318830
HW -2.351912 7.604759 6.785378
HW -3.712155 6.989821 6.532821
OW 5.417431 7.261150 -5.188567
HW 6.043730 7.877821 -5.567925
HW 4.631807 7.784522 -5.029440
OW -8.980606 -10.173031 -3.139361
HW -9.723949 -9.649315 -2.840016
HW -8.214978 -9.742250 -2.758984
OW -7.682358 2.049602 9.148045
HW -7.608999 1.219521 9.619245
HW -7.373189 1.851703 8.263909
OW -5.272205 -9.515215 -2.295327
HW -4.584197 -8.904807 -2.029825
HW -5.773537 -9.674293 -1.495449
OW 4.347684 -7.784367 8.660780
HW 4.123375 -7.315890 7.856628
HW 5.240596 -7.503234 8.861075
OW 7.663138 -2.830974 6.624870
HW 7.198812 -2.076615 6.987897
HW 7.456929 -3.549901 7.222421
OW 7.739450 -3.091174 -9.519016
HW 6.963324 -2.669524 -9.888186
HW 8.121492 -3.574267 -10.251894
OW 0.763551 2.322788 8.452414
HW 0.038342 1.730271 8.253817
HW 0.342062 3.157427 8.657767
OW 3.007703 -8.164176 0.392792
HW 2.327492 -8.092266 -0.276974
HW 2.964623 -9.075885 0.681542
OW -1.663478 -6.851302 -3.770443
HW -2.611550 -6.932455 -3.875410
HW -1.299660 -7.247354 -4.562418
OW 9.252924 -8.959908 -10.061565
HW 10.193206 -8.795062 -9.989880
HW 9.191131 -9.852277 -10.402600
OW 6.448420 0.840906 -9.175578
HW 5.614474 1.307261 -9.234681
HW 6.248393 -0.046881 -9.472676
OW 6.223787 -6.433365 11.195458
HW 6.422430 -5.499423 11.264288
HW 7.080571 -6.859762 11.171962
OW 9.393426 6.680898 6.158930
HW 9.247470 7.113510 7.000350
HW 8.919842 5.851978 6.230031
OW 3.552113 -6.575062 -2.854149
HW 4.322809 -6.493775 -3.416167
HW 3.024719 -7.258687 -3.267618
OW -6.344744 -3.846250 -5.350957
HW -6.336041 -4.696965 -5.789879
HW -7.236582 -3.759240 -5.014061
OW -10.776045 2.499039 2.279390
HW -11.292436 1.701109 2.164968
HW -10.265355 2.571991 1.472967
OW 11.268314 -1.350950 -4.359587
HW 11.230163 -2.008911 -3.665269
HW 10.358125 -1.082623 -4.486083
OW -9.305877 -6.603397 -9.919252
HW -9.532030 -5.715693 -10.197247
HW -10.143063 -7.066894 -9.892140
OW 6.513768 4.986451 3.485675
HW 7.370969 4.912767 3.065886
HW 5.914863 4.537946 2.888515
OW -9.435233 2.229013 -7.669972
HW -9.684466 2.670375 -8.482085
HW -10.257401 2.127012 -7.190304
OW 5.683049 3.271528 6.018546
HW 6.577003 3.332659 5.681568
HW 5.787271 2.974719 6.922696
OW -10.677360 9.109402 6.862082
HW -10.425126 8.586608 6.100826
HW -9.864468 9.223688 7.354615
OW -0.037743 6.860398 -8.244953
HW -0.098798 6.100544 -8.824037
HW 0.895131 7.074638 -8.227848
OW -4.695298 1.422078 -9.229594
HW -4.018199 1.213744 -8.585715
HW -4.500171 2.319065 -9.501228
OW 8.751532 9.106954 -5.912900
HW 9.143156 8.481259 -6.522475
HW 8.062996 9.537182 -6.420115
OW 1.877014 -10.625273 6.209401
HW 2.589033 -11.021591 6.711802
HW 1.685112 -11.262699 5.521428
OW 7.388304 2.629403 1.533218
HW 7.271536 3.288618 0.848933
HW 8.316162 2.683457 1.762570
OW 1.542468 -6.555773 9.130840
HW 0.742954 -6.545755 9.657264
HW 1.945757 -5.702426 9.290851
OW 7.237657 -9.414387 -2.486614
HW 6.945567 -8.900921 -3.239926
HW 7.419287 -8.763499 -1.808528
OW -8.646709 10.438444 -10.760846
HW -9.473608 10.260617 -11.209245
HW -8.259355 11.163980 -11.250743
OW 10.498023 -6.464650 10.627100
HW 10.340386 -7.307814 10.202046
HW 9.786537 -6.379264 11.261878
OW 0.223180 9.103583 10.356955
HW 0.023108 9.048564 11.291507
HW 0.563272 9.990267 10.236228
OW -4.546900 -3.893089 8.808458
HW -3.811714 -4.505783 8.831974
HW -4.261006 -3.154570 9.346324
OW -8.474036 -0.265996 2.734036
HW -7.536236 -0.100635 2.635892
HW -8.861927 0.603622 2.832771
OW 0.685576 -1.294458 7.862768
HW 1.322335 -0.762763 8.340557
HW -0.164469 -1.011566 8.200172
OW 4.545276 -4.789389 8.853070
HW 4.368780 -4.484524 9.743211
HW 5.499262 -4.766993 8.776558
OW 6.442165 -6.427594 -6.009062
HW 5.489630 -6.522260 -5.996405
HW 6.772461 -7.326092 -6.016303
OW 5.870631 -9.306464 10.839045
HW 6.679033 -9.799509 10.979894
HW 5.197827 -9.977310 10.721802
OW 0.115920 9.899474 -3.851820
HW -0.176684 10.555233 -4.484914
HW 0.699779 10.378077 -3.263184
OW -3.157891 4.396993 9.310512
HW -2.586634 3.671247 9.058711
HW -3.719888 4.535613 8.548023
OW 2.656439 4.357758 -9.501965
HW 3.605385 4.421774 -9.393107
HW 2.296610 4.758273 -8.710413
OW -7.069221 10.516361 2.377223
HW -7.179946 11.242638 2.990987
HW -7.928367 10.095215 2.346407
OW 7.733103 7.752199 -8.767804
HW 6.974354 7.730536 -8.184472
HW 7.758928 8.651670 -9.094502
OW -0.229019 -9.247025 9.060546
HW -0.479241 -10.112918 9.383134
HW -0.957283 -8.678203 9.310583
OW -9.016400 -2.820037 -10.042522
HW -8.254845 -2.258055 -9.898800
HW -9.697399 -2.449466 -9.480950
OW -8.394540 7.510800 3.251990
HW -8.508108 7.993402 4.070918
HW -9.204690 7.667727 2.766730
OW 0.538046 4.901734 -6.403030
HW 0.372800 4.081674 -6.868476
HW -0.323501 5.177668 -6.089913
OW -2.026616 7.334851 -10.558494
HW -2.046408 7.915144 -9.797368
HW -2.948224 7.177001 -10.763840
OW 5.216667 10.185052 -10.121499
HW 6.046045 10.187884 -10.599588
HW 5.167045 9.311793 -9.732397
OW -7.233740 10.343822 -8.403776
HW -6.746379 10.738322 -7.680385
HW -7.983784 9.920990 -7.985335
OW 8.722372 -4.710308 -6.496103
HW 9.174460 -5.514889 -6.241719
HW 8.725660 -4.172612 -5.704069
OW -1.335105 -6.213294 4.831927
HW -0.395896 -6.398125 4.844982
HW -1.749811 -7.074995 4.875907
OW -2.232304 -1.681999 10.476324
HW -1.359186 -1.332676 10.655444
HW -2.449610 -2.195341 11.254594
OW 10.434787 -7.793702 -7.124354
HW 11.248939 -8.030764 -7.568654
HW 9.854255 -8.540265 -7.272918
OW 10.093045 6.340571 -10.197571
HW 10.892762 5.814676 -10.215824
HW 9.482106 5.829779 -9.666262
OW -10.250112 5.154574 -1.437537
HW -9.826218 5.266861 -2.288507
HW -10.016880 4.265865 -1.168752
OW 5.560353 -2.051513 9.205266
HW 5.448574 -1.989325 10.153993
HW 4.688320 -1.880471 8.849247
OW -0.282530 -7.620648 -9.282640
HW -0.324511 -7.757615 -10.229172
HW -1.020515 -7.041756 -9.091051
OW 7.448544 3.196696 -3.482602
HW 6.777462 3.089211 -4.156798
HW 8.277604 3.130731 -3.956684
OW 0.728327 -9.830543 -6.059788
HW 1.663890 -9.629556 -6.087587
HW 0.299537 -8.974809 -6.042379
OW -6.517290 6.794277 -3.159731
HW -7.204368 6.223917 -3.504780
HW -5.926406 6.932984 -3.900043
OW 10.713124 8.405080 -2.342468
HW 10.883188 7.471065 -2.219427
HW 10.235038 8.667551 -1.555710
OW -9.855952 -10.122827 -8.701696
HW -10.473388 -10.677331 -9.178921
HW -9.799268 -10.519883 -7.832456
OW -5.358255 9.396417 4.214713
HW -4.429739 9.208909 4.353074
HW -5.758370 8.537800 4.076403
OW 1.807069 6.141947 10.636824
HW 1.651824 6.832895 11.280978
HW 2.733450 5.922994 10.738427
OW -2.353776 -9.046626 -7.178477
HW -2.809244 -8.227028 -7.371487
HW -2.051881 -9.359875 -8.031225
OW 9.864578 0.510644 11.068599
HW 10.201737 0.328600 10.191315
HW 9.061375 1.009335 10.918205
OW 7.265371 9.583535 9.504613
HW 6.704803 10.310842 9.233996
HW 6.905498 8.821458 9.050548
OW -10.372359 7.337794 0.229092
HW -11.182109 7.532990 0.700948
HW -10.030033 8.195011 -0.024756
OW 9.946988 4.873229 1.440220
HW 9.178221 5.262195 1.022912
HW 10.617280 4.874312 0.756735
OW -5.641171 10.903263 10.450161
HW -5.614491 9.964928 10.637936
HW -4.861689 11.256096 10.879535
OW 4.201190 0.365074 -6.798330
HW 5.130029 0.133559 -6.788135
HW 4.189604 1.315549 -6.684711
OW 0.325734 6.556208 6.049003
HW 0.481412 5.853982 5.417268
HW 0.068392 7.307330 5.514180
OW -1.308066 -6.591693 7.555108
HW -0.784061 -5.792512 7.498774
HW -2.213747 -6.290404 7.481546
OW 2.642208 -10.282233 -8.912241
HW 3.344065 -10.143692 -9.548360
HW 2.211163 -9.430405 -8.841289
OW -9.016871 -3.420371 4.360074
HW -8.383228 -4.104755 4.575853
HW -8.490269 -2.717149 3.979793
OW 8.377998 0.937476 3.886635
HW 8.451923 1.770655 4.352247
HW 9.279982 0.627197 3.805422
OW 3.170960 -1.925342 -8.661864
HW 3.056892 -1.962519 -7.712100
HW 4.041230 -1.545753 -8.784284
OW -4.443870 9.927501 -9.182978
HW -4.542308 9.032451 -9.508000
HW -3.560443 10.183365 -9.448560
OW 1.456425 8.005022 3.151236
HW 0.590987 8.005231 2.742015
HW 1.908973 7.260288 2.754983
OW -8.069272 2.595772 -0.180815
HW -7.743215 1.851436 -0.686874
HW -7.536641 2.596812 0.614640
OW 6.985863 -10.405406 -8.855780
HW 6.773325 -11.085954 -8.216931
HW 7.234249 -9.647930 -8.325706
OW 3.350051 0.548209 10.861642
HW 4.130695 0.158225 11.255282
HW 3.399281 0.302927 9.937598
OW -2.391756 -2.654657 7.164838
HW -3.271361 -2.464114 6.838597
HW -2.196246 -3.530067 6.830356
OW -7.230728 10.371409 6.598146
HW -6.900254 10.931894 5.895943
HW -7.259687 9.495663 6.212560
OW -8.131808 5.330373 -9.119585
HW -9.059812 5.257726 -9.343138
HW -8.049906 4.871788 -8.283261
OW -7.894878 10.516267 -5.191809
HW -7.330321 9.745089 -5.136992
HW -7.306433 11.255717 -5.038863
OW -10.462443 -9.481748 10.133051
HW -10.071910 -9.284956 10.984639
HW -9.719176 -9.713819 9.576146
OW 2.422698 9.162970 -9.652362
HW 1.867118 9.537794 -8.968781
HW 2.493346 9.854807 -10.310250
OW -10.718481 6.351017 -4.707307
HW -11.348980 5.649699 -4.542778
HW -11.257357 7.112562 -4.922031
OW 2.880824 -7.725683 3.317946
HW 2.947507 -6.902013 2.834660
HW 3.733791 -8.143589 3.198585
OW -3.396905 -7.419482 2.701558
HW -3.658258 -6.508247 2.834942
HW -3.964706 -7.920134 3.287556
OW -1.923210 -8.062078 -1.315473
HW -1.932566 -9.019268 -1.303480
HW -0.994596 -7.830904 -1.289435
OW -4.963333 -7.092617 0.206920
HW -4.987208 -7.992428 0.532827
HW -4.037809 -6.927253 0.026626
OW 0.299796 1.481768 -10.412063
HW -0.003111 0.588603 -10.247898
HW 0.774851 1.425372 -11.241271
OW -4.159485 -5.946390 5.569655
HW -5.026232 -6.018464 5.169656
HW -3.826565 -5.100348 5.269952
OW -3.167339 -9.078891 10.903513
HW -2.837011 -8.259593 11.272400
HW -2.582110 -9.751834 11.251506
OW 3.467937 6.068574 7.997076
HW 2.560896 6.374643 8.003535
HW 3.990472 6.868136 7.933021
OW -7.637674 -8.503347 -8.839338
HW -7.321913 -9.119767 -8.178455
HW -7.102143 -7.720101 -8.712152
OW 5.013290 5.258276 -3.348332
HW 4.431183 5.930734 -2.994217
HW 5.612241 5.056592 -2.629286
OW -5.818938 -1.047228 10.610430
HW -6.368989 -0.606802 11.258438
HW -4.951981 -1.081167 11.015002
OW -7.685972 7.938637 -9.867476
HW -8.404777 7.715851 -10.459194
HW -6.919612 8.009080 -10.436841
OW -0.126541 8.364585 -1.584225
HW -0.894208 7.795042 -1.531758
HW 0.598606 7.772087 -1.783103
OW -11.284031 -6.311481 4.418779
HW -10.795250 -7.046315 4.047891
HW -10.609708 -5.709949 4.734838
OW -7.457205 8.890121 8.903679
HW -6.921699 8.097656 8.862722
HW -8.196067 8.651687 9.463748
OW -10.438024 -8.584476 0.055542
HW -10.895809 -8.314768 -0.740784
HW -9.537568 -8.743854 -0.227693
OW 2.117209 9.089389 0.712542
HW 1.749157 9.657863 0.035917
HW 2.381239 8.297841 0.243305
OW 6.710242 -7.094803 6.573280
HW 6.741868 -6.140331 6.639824
HW 7.627794 -7.361852 6.516465
OW -7.833897 -1.072297 -2.592873
HW -8.790784 -1.050833 -2.611584
HW -7.573823 -0.151471 -2.563102
OW -11.178255 2.828671 10.424960
HW -11.248755 3.287159 11.262374
HW -10.394383 2.286337 10.513642
OW -4.398003 11.250297 6.989706
HW -4.586539 11.161639 7.924071
HW -3.906627 10.459194 6.768006
OW -4.728423 11.016853 1.024393
HW -4.498796 10.980270 0.095750
HW -4.314814 10.241683 1.404504
OW -9.395794 -0.483211 -7.119717
HW -9.088839 -1.306433 -6.739547
HW -10.306890 -0.654295 -7.358629
OW -4.873967 -9.856454 -9.190889
HW -4.717167 -9.997977 -8.257170
HW -4.706672 -8.923248 -9.323493
OW -7.438773 -4.263860 -2.318911
HW -8.262571 -3.776802 -2.342924
HW -6.760764 -3.588104 -2.308796
OW 10.124532 10.841791 8.157369
HW 10.921725 10.974456 8.670525
HW 9.776726 10.005164 8.466451
OW 8.714711 -9.822138 0.373179
HW 8.412590 -10.730404 0.388032
HW 9.668775 -9.885888 0.419468
OW 6.850185 7.944263 -1.302572
HW 7.487912 8.574060 -1.638883
HW 6.382756 7.637890 -2.079805
OW 7.811525 0.425437 -3.795733
HW 7.059657 0.363322 -4.385039
HW 7.426328 0.504501 -2.922912
OW 6.213642 4.742521 9.876979
HW 5.344265 5.129779 9.773737
HW 6.131932 3.865867 9.501151
OW -1.027046 6.071768 8.845951
HW -0.104810 5.877199 8.678415
HW -1.009840 6.823841 9.438011
OW -10.121588 -2.916534 -0.508290
HW -11.042571 -2.881444 -0.767143
HW -9.991682 -3.815231 -0.205119