246
Lattice="24.750000 0.0 0.0  0.0 24.750000 0.0  0.0 0.0 24.750000" Origin="-12.375000 -12.375000 -12.375000" a=3.5670Å diameter=1.10nm
CS -5.249511 0.100989 -1.287130
CS -4.872613 -1.305613 -0.772278
CS -4.872613 -1.305613 0.772278
CS -4.596704 2.537296 -1.287130
CS -4.495715 -2.712215 1.287130
C -4.219806 1.130694 -0.772278
CS -4.219806 1.130694 0.772278
CS -3.842908 -0.275908 -3.346539
C -3.842908 -0.275908 1.287130
CS -3.842908 -0.275908 2.831687
CS -3.567000 3.567000 -0.772278
CS -3.567000 3.567000 0.772278
CS -3.466011 -1.682511 -2.831687
C -3.466011 -1.682511 -1.287130
CS -3.466011 -1.682511 3.346539
CS -3.190102 2.160398 -3.346539
C -3.190102 2.160398 1.287130
CS -3.190102 2.160398 2.831687
CS -3.089113 -3.089113 -0.772278
C -3.089113 -3.089113 0.772278
C -2.813204 0.753796 -2.831687
C -2.813204 0.753796 -1.287130
CS -2.813204 0.753796 3.346539
OS -2.712215 -4.495715 1.287130
CS -2.537296 4.596704 1.287130
C -2.436306 -0.652806 -0.772278
C -2.436306 -0.652806 0.772278
CS -2.160398 3.190102 -2.831687
C -2.160398 3.190102 -1.287130
CS -2.160398 3.190102 3.346539
CS -2.059408 -2.059408 -3.346539
C -2.059408 -2.059408 1.287130
C -2.059408 -2.059408 2.831687
C -1.783500 1.783500 -0.772278
C -1.783500 1.783500 0.772278
CS -1.682511 -3.466011 -2.831687
C -1.682511 -3.466011 -1.287130
CS -1.682511 -3.466011 3.346539
CS -1.406602 0.376898 -4.891095
C -1.406602 0.376898 -3.346539
C -1.406602 0.376898 1.287130
C -1.406602 0.376898 2.831687
CS -1.305613 -4.872613 -0.772278
CS -1.305613 -4.872613 0.772278
CS -1.130694 4.219806 -0.772278
C -1.130694 4.219806 0.772278
C -1.029704 -1.029704 -2.831687
C -1.029704 -1.029704 -1.287130
C -1.029704 -1.029704 3.346539
CS -1.029704 -1.029704 4.891095
CS -0.753796 2.813204 -3.346539
C -0.753796 2.813204 1.287130
C -0.753796 2.813204 2.831687
C -0.652806 -2.436306 -0.772278
C -0.652806 -2.436306 0.772278
C -0.376898 1.406602 -2.831687
N -0.376898 1.406602 -1.287130
C -0.376898 1.406602 3.346539
CS -0.376898 1.406602 4.891095
CS -0.275908 -3.842908 -3.346539
C -0.275908 -3.842908 1.287130
CS -0.275908 -3.842908 2.831687
CS -0.100989 5.249511 1.287130
CS 0.000000 0.000000 -5.405947
C -0.000000 -0.000000 0.772278
CS -0.000000 -0.000000 5.405947
CS 0.100989 -5.249511 -1.287130
CS 0.275908 3.842908 -2.831687
C 0.275908 3.842908 -1.287130
OS 0.275908 3.842908 3.346539
OS 0.376898 -1.406602 -4.891095
C 0.376898 -1.406602 -3.346539
C 0.376898 -1.406602 1.287130
C 0.376898 -1.406602 2.831687
C 0.652806 2.436306 -0.772278
C 0.652806 2.436306 0.772278
C 0.753796 -2.813204 -2.831687
C 0.753796 -2.813204 -1.287130
CS 0.753796 -2.813204 3.346539
OS 1.029704 1.029704 -4.891095
C 1.029704 1.029704 -3.346539
C 1.029704 1.029704 1.287130
C 1.029704 1.029704 2.831687
C 1.130694 -4.219806 -0.772278
CS 1.130694 -4.219806 0.772278
CS 1.305613 4.872613 -0.772278
CS 1.305613 4.872613 0.772278
C 1.406602 -0.376898 -2.831687
C 1.406602 -0.376898 -1.287130
C 1.406602 -0.376898 3.346539
CS 1.406602 -0.376898 4.891095
OS 1.682511 3.466011 -3.346539
C 1.682511 3.466011 1.287130
CS 1.682511 3.466011 2.831687
C 1.783500 -1.783500 -0.772278
C 1.783500 -1.783500 0.772278
C 2.059408 2.059408 -2.831687
C 2.059408 2.059408 -1.287130
CS 2.059408 2.059408 3.346539
CS 2.160398 -3.190102 -3.346539
C 2.160398 -3.190102 1.287130
CS 2.160398 -3.190102 2.831687
C 2.436306 0.652806 -0.772278
C 2.436306 0.652806 0.772278
CS 2.537296 -4.596704 -1.287130
CS 2.712215 4.495715 -1.287130
CS 2.813204 -0.753796 -3.346539
C 2.813204 -0.753796 1.287130
C 2.813204 -0.753796 2.831687
C 3.089113 3.089113 -0.772278
CS 3.089113 3.089113 0.772278
CS 3.190102 -2.160398 -2.831687
C 3.190102 -2.160398 -1.287130
CS 3.190102 -2.160398 3.346539
OS 3.466011 1.682511 -3.346539
C 3.466011 1.682511 1.287130
CS 3.466011 1.682511 2.831687
CS 3.567000 -3.567000 -0.772278
CS 3.567000 -3.567000 0.772278
CS 3.842908 0.275908 -2.831687
C 3.842908 0.275908 -1.287130
CS 3.842908 0.275908 3.346539
CS 4.219806 -1.130694 -0.772278
C 4.219806 -1.130694 0.772278
OS 4.495715 2.712215 -1.287130
CS 4.596704 -2.537296 1.287130
CS 4.872613 1.305613 -0.772278
CS 4.872613 1.305613 0.772278
OS 5.249511 -0.100989 1.287130
H -6.242067 0.366944 -0.923539
H -5.249246 0.100919 -2.377130
O -5.825946 -2.258946 -1.248945
O -6.174890 -0.956668 1.248945
H -5.589261 2.803251 -0.923539
H -4.596440 2.537225 -2.377130
H -5.222317 -3.438817 0.923539
H -4.495521 -2.712021 2.377130
H -5.212451 1.396672 1.135611
H -4.835465 -0.009954 -2.982947
O -3.842562 -0.276001 -4.776539
O -5.145186 0.073036 3.308353
H -3.832978 4.559645 -1.135611
O -4.869278 3.915944 1.248945
O -4.419344 -2.635844 -3.308353
H -4.192613 -2.409113 2.982947
H -3.465817 -1.682317 4.436539
H -4.182659 2.426353 -2.982947
O -3.189755 2.160305 -4.776539
H -4.182747 2.426376 3.195020
H -3.815779 -3.815779 -1.135611
H -2.813204 0.753796 4.436539
H -2.537225 4.596440 2.377130
O -2.886209 5.898866 0.810125
O -2.509342 4.492380 -3.308353
H -2.160327 3.189838 4.436539
H -2.426353 4.182659 2.982947
H -2.059408 -2.059408 -4.436539
O -2.635844 -4.419344 -3.308353
O -2.635759 -4.419259 2.869533
O -1.682257 -3.465757 4.776539
H -1.672363 1.369648 -5.254299
H -2.133133 -0.349969 -5.254299
O -2.258946 -5.825946 -1.248945
H -1.039634 -5.865258 1.135611
O -1.479638 5.522084 -1.248945
H -0.763485 -2.022332 5.254299
O -2.331959 -0.680444 5.367592
H -0.753796 2.813204 -4.436539
H -1.369648 1.672363 5.254299
O 0.576698 2.359758 5.367592
O -0.276001 -3.842562 -4.776539
H -0.009954 -4.835465 -2.982947
O 0.073036 -5.145186 3.308353
H -0.100919 5.249246 2.377130
H -0.366944 6.242067 0.923539
H -0.000000 -0.000000 -6.495947
H 0.000000 0.000000 6.495947
H 0.100919 -5.249246 -2.377130
O 0.449903 -6.551672 -0.810125
H 0.009930 4.835554 -3.195020
O 0.753796 -2.813204 4.776539
H 1.396672 -5.212451 1.135611
O 0.956668 6.174890 -1.248945
O 2.258946 5.825946 1.248945
O 1.755261 -1.679314 5.367592
O 2.359758 0.576698 5.367592
H 2.409177 4.192677 3.195020
H 2.059408 2.059408 4.436539
H 2.160327 -3.189838 -4.436539
H 2.426353 -4.182659 -2.982947
O 2.509342 -4.492380 3.308353
H 2.537225 -4.596440 -2.377130
H 2.803251 -5.589261 -0.923539
H 3.438817 5.222317 -0.923539
O 2.711961 4.495461 -2.717130
O 2.813204 -0.753796 -4.776539
H 3.815779 3.815779 1.135611
O 4.492380 -2.509342 -3.308353
H 4.182659 -2.426353 2.982947
O 3.189755 -2.160305 4.776539
O 4.419344 2.635844 3.308353
O 4.869278 -3.915944 -1.248945
O 3.915944 -4.869278 1.248945
H 4.835554 0.009930 -3.195020
O 5.145070 -0.073005 2.869533
H 3.842644 0.275979 4.436539
H 5.212451 -1.396672 -1.135611
O 5.898866 -2.886209 0.810125
H 4.596440 -2.537225 2.377130
H 5.865258 1.039634 -1.135611
O 5.825946 2.258946 1.248945
H -2.299002 -0.859406 6.310188
H 2.697735 -1.626925 5.542517
H 3.440353 5.072659 -2.957727
H -1.980890 -6.658708 -0.860626
H 1.763875 6.687116 -1.161528
H 5.636610 0.751408 2.887759
H -2.441605 4.424833 -4.263575
H 6.379767 -3.152534 1.597148
H -1.204842 -3.875792 -5.016851
H 0.218190 2.659893 6.206038
H -5.163268 4.612277 0.657091
H 3.658675 -0.367785 -5.016903
H -2.436792 6.501833 1.406829
H 1.743429 6.618286 1.416394
H -6.744363 -1.660336 0.929331
H 0.129712 -5.045086 4.261437
H -0.091458 -3.199690 5.016903
H -4.008228 -3.018137 -4.087093
H 2.271790 0.547615 6.323111
H -6.268325 -1.813864 -1.975445
H -0.392609 -6.989685 -0.668990
H 6.562341 2.189055 0.637031
H -1.970919 5.358496 -2.057327
H 4.664919 -4.719652 1.830537
H -1.510581 -4.379151 5.017035
H -2.108095 -5.080217 2.415325
H -4.754669 -0.097755 -5.017136
H 3.395894 -4.641947 2.971820
H -5.743488 -0.477383 2.797791
H 2.628030 -2.900799 5.016815
H 3.994099 3.486645 3.178336
H -3.547041 1.302309 -5.016934
H -2.927449 -4.066389 -4.152148
H 5.465630 -3.345756 -0.758181
H 4.366110 -2.689004 -4.242900