         846
  Built with Packmol                                             
  O           -6.251845       -4.057172        8.488519
  H           -5.791386       -3.400871        9.011675
  H           -5.615925       -4.763919        8.376452
  O           -5.850372        3.291194        6.615530
  H           -5.787877        2.837379        7.456120
  H           -4.975098        3.213969        6.235560
  O            9.849468       -7.485103       -6.703638
  H           10.136212       -8.313197       -7.088975
  H            9.470449       -7.731664       -5.859839
  O            0.192440        8.571310        0.642670
  H           -0.172092        9.453369        0.568287
  H            1.055690        8.633204        0.233509
  O           10.080495        2.293775        3.435054
  H            9.963885        1.807989        2.618439
  H           11.018284        2.234048        3.617895
  O           -1.576680        2.725995        7.790293
  H           -2.387858        2.382886        8.165408
  H           -1.862805        3.266906        7.054091
  O           10.335593        0.968686        6.927809
  H           10.747501        1.009933        6.064631
  H           11.066324        0.865919        7.537658
  O           -7.708603        0.301984       -8.409735
  H           -7.825111       -0.488985       -7.883200
  H           -8.519755        0.377085       -8.912564
  O            8.038361        1.090723        5.422821
  H            8.231887        0.155655        5.354701
  H            7.439774        1.158234        6.166851
  O           -2.733992       10.487413        5.551110
  H           -2.634358        9.579590        5.264098
  H           -2.586120       11.006567        4.760504
  O            5.992330        8.311117       -0.976987
  H            6.278187        8.830716       -1.728484
  H            5.359344        8.869890       -0.525825
  O           -9.170606        9.164504       -1.585927
  H           -9.676680        9.840900       -1.135569
  H           -9.037281        8.484771       -0.925146
  O           10.900142       -8.570099      -10.165971
  H           11.004894       -9.501222       -9.969803
  H           10.028210       -8.352104       -9.836339
  O           -7.188637       -1.709772        4.972354
  H           -6.342698       -1.789799        4.531416
  H           -6.993631       -1.868349        5.896081
  O            8.485618      -11.017085        4.581978
  H            9.308298      -10.940141        4.098529
  H            7.808062      -11.006012        3.905783
  O            7.529659        4.273057        5.130168
  H            6.962772        3.554458        4.849633
  H            8.329789        4.161985        4.616456
  O           -9.766288       -4.566328       -0.468881
  H           -9.987420       -3.635997       -0.423820
  H           -8.809682       -4.584248       -0.500947
  O            5.147402       -9.708947        1.974902
  H            5.392312       -8.788761        1.876308
  H            5.974370      -10.186109        1.905006
  O            2.628675       -6.595386       -8.966825
  H            1.839755       -7.003426       -8.609681
  H            2.666993       -5.737079       -8.544585
  O           -8.255950        8.354960        3.372907
  H           -7.803664        8.910510        4.007924
  H           -8.569842        8.962692        2.703147
  O           -8.162884      -10.154014        1.324562
  H           -8.424297      -10.333503        2.227830
  H           -8.214459      -11.003679        0.886551
  O            6.570692       -9.664636       -1.019106
  H            6.300948      -10.566153       -0.843179
  H            7.458184       -9.743756       -1.369168
  O            2.369588      -10.105699       -9.070751
  H            3.109003       -9.510473       -9.194916
  H            2.425998      -10.370026       -8.152386
  O           -7.694000       -6.447230        9.358356
  H           -8.312494       -7.045021        9.778540
  H           -7.122196       -7.016662        8.843349
  O            3.965675       -1.991390       -9.581355
  H            3.284752       -2.513824       -9.157268
  H            3.726950       -1.084501       -9.388981
  O           10.034487        9.548087       -4.348591
  H            9.691781        8.666734       -4.199546
  H           10.932244        9.515508       -4.017812
  O            0.709631        0.023298        8.414970
  H            0.368221        0.788739        7.952385
  H            1.427940       -0.288980        7.864553
  O            7.467109       -0.259474        2.710990
  H            7.454346        0.696174        2.765939
  H            8.396914       -0.485925        2.685914
  O           -1.128469        2.121696       10.663469
  H           -0.434580        1.485816       10.488485
  H           -1.920721        1.592543       10.757166
  O           -9.342980        5.790419        6.610336
  H           -9.091670        6.215926        5.790438
  H           -8.655217        5.142755        6.765122
  O           -7.089590       -9.248101        6.747712
  H           -6.818417       -9.469965        7.638603
  H           -6.615270       -8.441271        6.546487
  O            8.823463        9.862951       -1.612762
  H            8.645648        9.875870       -0.672198
  H            9.671781       10.297399       -1.702518
  O           -7.014069        8.140290       -3.866002
  H           -7.158413        7.670589       -3.044424
  H           -7.690970        8.817134       -3.877498
  O           -7.105577       -7.805354       -2.954613
  H           -7.740492       -7.088902       -2.959551
  H           -6.357623       -7.459706       -2.467235
  O            3.707733       -7.907831       -6.804654
  H            4.405030       -7.258139       -6.894780
  H            4.165354       -8.748089       -6.773124
  O           -9.090338        9.626712       -6.101527
  H           -8.650146        8.853320       -6.454432
  H           -9.947955        9.629619       -6.526887
  O            1.236656        0.645665       -8.178170
  H            2.004234        0.281039       -7.737355
  H            1.446292        0.589588       -9.110561
  O           -6.777104       -6.882896        3.569456
  H           -6.416165       -7.355848        2.819466
  H           -6.123825       -6.994278        4.260299
  O           -6.254788        7.072781       -9.289143
  H           -6.468073        6.423776       -8.618512
  H           -7.050788        7.597261       -9.377176
  O           -9.187411      -10.713591        5.086762
  H           -9.928425      -10.487841        4.524285
  H           -9.449098      -10.417399        5.958677
  O            8.261670        3.474148        8.008171
  H            8.464851        2.580532        8.284962
  H            7.342159        3.440244        7.743987
  O            6.847938       -5.077262       -6.319246
  H            7.634507       -5.547802       -6.595554
  H            6.374521       -5.702775       -5.770562
  O           -7.965959       -1.140333       -0.781928
  H           -7.728517       -2.051481       -0.609081
  H           -8.054872       -0.746769        0.086200
  O           10.305457       -8.383918        4.654166
  H            9.555561       -8.201605        4.087718
  H           10.200092       -7.783522        5.392319
  O           -5.304239       -9.274485        0.027049
  H           -4.971081       -9.609246        0.859747
  H           -5.929483       -9.937855       -0.265277
  O            8.046012      -10.344011       -9.490359
  H            7.277128      -10.740876       -9.899947
  H            8.734184      -11.003015       -9.582979
  O            5.204889        5.038553       10.746711
  H            4.554116        5.719956       10.577510
  H            4.698700        4.226767       10.781661
  O           10.920655        1.463100       -9.197289
  H           10.700806        0.824701       -8.518645
  H           10.268788        2.156603       -9.094487
  O            8.469000       -5.309813        8.221957
  H            8.318287       -6.251373        8.306782
  H            7.716764       -4.906448        8.655413
  O            4.167303        2.527038       -9.112950
  H            4.180115        1.672713       -8.681198
  H            3.301400        2.578179       -9.517970
  O           -0.709211       -9.849996        0.545112
  H           -1.044438       -9.064865        0.978283
  H           -1.373022      -10.064170       -0.110578
  O           -3.668761        7.285863       -3.686369
  H           -3.239159        6.561314       -3.231489
  H           -4.414793        7.509865       -3.129859
  O           -1.215900       -2.891794        7.887322
  H           -0.483884       -2.328306        7.636168
  H           -1.927990       -2.635607        7.301028
  O           -1.701778        5.134951       -5.890084
  H           -2.371785        5.799013       -5.727120
  H           -0.922808        5.634984       -6.134252
  O           -6.187853        0.816374        5.395043
  H           -6.338508        1.416245        4.664357
  H           -6.981489        0.881464        5.926411
  O           10.422989        7.922940        8.807900
  H           10.998387        8.687867        8.792109
  H           11.018352        7.174129        8.772263
  O           -2.461932       -9.792809       -4.655728
  H           -3.325343       -9.988925       -5.019740
  H           -1.852968      -10.291629       -5.200510
  O            7.693374       -2.040981       -2.544054
  H            7.634417       -1.233080       -2.033891
  H            8.372251       -1.864338       -3.195490
  O           -7.684711        3.511565       -0.073336
  H           -7.342068        3.084098        0.711720
  H           -8.354220        4.112642        0.253634
  O            5.261103        6.890948       -8.701635
  H            4.872244        6.016177       -8.704837
  H            6.204022        6.734132       -8.649129
  O            6.411521       -8.367791       -5.093692
  H            7.161584       -8.347842       -4.499173
  H            5.656621       -8.186309       -4.533661
  O            4.324621        6.626815        1.367712
  H            4.253889        6.375528        2.288742
  H            5.262934        6.751161        1.224353
  O            7.798132        0.192601       -4.928103
  H            7.853991       -0.477996       -5.609002
  H            6.914533        0.099556       -4.571674
  O            7.953544       -9.955203       -6.769569
  H            8.518870      -10.333435       -6.095928
  H            7.143929      -10.463271       -6.716313
  O            8.468809       -1.933515        7.161179
  H            8.938393       -2.702911        7.483617
  H            8.823830       -1.204873        7.670576
  O            0.081663        3.141286       -8.172883
  H           -0.557136        2.662831       -8.701524
  H           -0.331071        3.222149       -7.312908
  O           -4.262886       -1.059180       -6.952436
  H           -4.766986       -1.141385       -7.762109
  H           -4.588236       -0.254853       -6.547899
  O           -8.688397        8.657237       10.278472
  H           -7.753908        8.864874       10.286330
  H           -8.721511        7.700529       10.270761
  O           -6.342972        6.292109        5.819533
  H           -6.228989        7.155776        5.422629
  H           -5.495894        5.861336        5.704042
  O           -6.721232       -0.941163       -4.375592
  H           -6.856211       -1.174897       -5.294066
  H           -6.763841        0.015112       -4.362646
  O           10.099565       -4.422658       -7.051045
  H           11.004148       -4.346661       -6.747072
  H           10.151799       -4.990424       -7.820043
  O            5.057226       -0.461370       -6.803105
  H            4.839844        0.357889       -6.358127
  H            4.285926       -1.014399       -6.677809
  O           -6.336211        5.968863       -0.107054
  H           -5.611489        5.662732       -0.652496
  H           -6.592897        6.804942       -0.496322
  O            1.833182        3.535855        8.183382
  H            0.965696        3.423374        8.572305
  H            1.785092        3.067109        7.350070
  O           -7.769664        0.032987        2.767223
  H           -8.471520        0.246732        3.382167
  H           -7.614882        0.846859        2.287537
  O           10.498295       -9.591703       -3.596842
  H            9.584575       -9.306358       -3.608602
  H           10.699705       -9.789282       -4.511632
  O           -4.140677        8.712106        7.864760
  H           -4.911487        8.501095        8.391800
  H           -4.298156        8.279410        7.025463
  O           10.192075       -1.703996       -1.140603
  H           10.236210       -1.518838       -0.202406
  H           10.992403       -1.319835       -1.498849
  O            6.675044       -8.570991        4.495507
  H            7.150816       -8.727092        5.311423
  H            5.903281       -9.134132        4.556326
  O            3.352392       -7.230432       -0.679342
  H            3.955376       -7.855915       -0.277314
  H            3.840223       -6.868596       -1.419302
  O           -5.591250        8.639216        1.385867
  H           -5.954858        7.937848        1.926531
  H           -6.069208        9.423213        1.656697
  O           -6.157356        5.844189        9.408865
  H           -6.215680        6.605439        9.986397
  H           -6.476090        6.159727        8.563118
  O            4.582780        9.586426        2.909283
  H            4.390641        9.348394        2.002162
  H            5.502392        9.349329        3.029880
  O           -8.729591        3.496912        4.563755
  H           -8.817049        2.801811        5.216158
  H           -8.364637        3.059354        3.794472
  O            1.787541        8.985468       -6.614331
  H            1.319034        8.269138       -6.185591
  H            1.113541        9.449548       -7.111119
  O           -3.529277       -7.574459       -7.058083
  H           -3.902550       -8.441426       -7.217712
  H           -2.774349       -7.738686       -6.492787
  O           -5.604945       10.498074       -4.748116
  H           -4.979559        9.940628       -4.284877
  H           -6.033235       11.003703       -4.057210
  O           -1.408426       -7.130766       -9.196585
  H           -2.219288       -6.629387       -9.283563
  H           -1.697777       -8.032667       -9.057673
  O           10.478469       10.167442        1.356767
  H           11.001879       10.899714        1.030783
  H           10.904821        9.913517        2.175419
  O           -9.437500        0.871168       10.213780
  H           -8.605519        1.259805       10.484362
  H          -10.063630        1.594342       10.251562
  O            6.481327       -7.090917       -2.149998
  H            6.286772       -6.218253       -2.492126
  H            7.395653       -7.040787       -1.870824
  O            4.906242       -8.122873      -10.746270
  H            5.743313       -7.741129      -11.010899
  H            4.253407       -7.472170      -11.004798
  O           -0.890564        8.042592        3.144196
  H           -1.442755        8.790243        2.914963
  H           -0.577142        8.237718        4.027449
  O            0.298030       -5.033085       -9.749733
  H           -0.387637       -4.578278       -9.260390
  H            0.864554       -4.333504      -10.075437
  O            3.739029       -6.553986        3.357540
  H            4.528276       -6.878877        3.791107
  H            3.979914       -6.495947        2.432851
  O           10.707795       -3.930012        2.712166
  H           10.418630       -3.776902        1.812508
  H           11.006513       -4.839514        2.716635
  O            0.380938        7.232521       -3.817614
  H           -0.552691        7.022807       -3.789299
  H            0.427040        8.155895       -3.569219
  O            5.160272      -10.705857       10.345322
  H            4.243302      -10.733572       10.618895
  H            5.135800      -10.340378        9.460861
  O            8.597762       -4.905126       -4.096810
  H            8.402639       -4.614023       -3.205950
  H            8.602103       -5.860820       -4.041359
  O           11.002397       -1.232277        3.154129
  H           11.099352       -0.797454        2.306796
  H           10.917538       -0.515669        3.783189
  O            0.846006       10.955514        9.530406
  H            1.538488       11.023403       10.187904
  H            0.348694       10.178193        9.785158
  O           10.845478        3.822733       -4.324751
  H           10.043871        4.116619       -3.891735
  H           11.008264        2.951662       -3.962563
  O            1.362417       -5.905287        9.150942
  H            0.537420       -5.546866        9.478599
  H            1.980021       -5.783830        9.872232
  O           -7.994900        2.606633       -4.295646
  H           -7.246227        2.732885       -3.712555
  H           -8.277387        3.493664       -4.518856
  O           -7.052648       -0.969240        8.772061
  H           -7.569306       -1.148949        9.557690
  H           -7.389819       -0.133469        8.449186
  O           -4.052495        6.748690        3.516559
  H           -3.265490        6.666429        2.977762
  H           -3.999237        7.630238        3.885993
  O           -3.936086       -9.058384        6.593427
  H           -2.992558       -8.916451        6.515618
  H           -4.106828       -9.025309        7.534808
  O            7.122267        4.185602        2.127247
  H            7.058805        3.265565        1.870442
  H            6.225392        4.434640        2.350944
  O            8.575556        5.546768       -5.734574
  H            7.702753        5.933745       -5.804632
  H            9.118421        6.244283       -5.366857
  O            9.685660        5.916216        6.243088
  H            8.951475        5.873776        6.855964
  H            9.957818        6.833906        6.257950
  O            0.051051       -5.210856        6.066903
  H            0.472475       -4.774664        6.807568
  H           -0.879836       -5.012549        6.169710
  O           -5.936984       10.034440        5.685461
  H           -5.369030        9.755403        4.967122
  H           -5.404515       10.652866        6.185932
  O           -8.713160      -10.024344       -2.576404
  H           -7.910167      -10.304642       -2.136995
  H           -8.699584      -10.483129       -3.416510
  O           -7.353732        3.266289      -10.112990
  H           -7.371348        3.001131       -9.193302
  H           -7.114690        4.193013      -10.090932
  O            1.894716        6.620941        8.197534
  H            1.118805        6.168630        8.528926
  H            2.631880        6.139038        8.572772
  O           -4.487703        4.707214       -7.786449
  H           -3.904412        4.133967       -7.288850
  H           -5.010760        4.110631       -8.322120
  O           -9.850916        7.076158       -4.377714
  H           -9.106990        6.518345       -4.605449
  H          -10.499297        6.474004       -4.012397
  O           -3.465141       -8.796698       10.753130
  H           -4.295059       -8.390292       11.003163
  H           -2.913543       -8.064949       10.476133
  O            6.863334        4.871605       -0.817647
  H            7.304296        5.520800       -0.269428
  H            5.982904        5.224708       -0.946516
  O            2.789533       -9.128535        8.581071
  H            2.914679       -8.180135        8.617396
  H            2.191574       -9.263617        7.845786
  O            6.858890       -7.763324       -8.027920
  H            7.700081       -7.794455       -8.483852
  H            6.343626       -8.464525       -8.426999
  O            5.608055       -7.997750        8.100958
  H            5.689682       -7.067091        8.309898
  H            6.507142       -8.289226        7.948871
  O            1.739208        7.439250        2.614194
  H            1.807200        6.985165        3.454211
  H            1.961133        8.348695        2.814455
  O           10.399681        7.013732       -1.065093
  H            9.705086        7.344334       -0.495282
  H           10.472702        7.668913       -1.759247
  O           -0.414351       -9.538368        5.722718
  H            0.380410       -9.008064        5.782529
  H           -0.174288      -10.375938        6.119318
  O            2.688368       -9.772859        4.501961
  H            3.057284       -8.954586        4.834790
  H            3.419077      -10.201674        4.056283
  O            2.930096       -6.068428        6.413120
  H            2.293941       -6.779387        6.333813
  H            3.781175       -6.506727        6.411186
  O           11.009431        3.578532        7.984875
  H           11.002982        3.634189        7.029205
  H           10.843639        4.474498        8.278479
  O           -4.519219        4.219363       10.974407
  H           -3.807173        3.590995       10.853625
  H           -4.081715        5.068535       11.037199
  O            3.052596        6.039765       -4.265697
  H            2.742246        6.095914       -5.169563
  H            4.006254        6.004131       -4.341278
  O            2.912199      -11.004625        0.339528
  H            3.644625      -10.994855       -0.276833
  H            2.136814      -10.877134       -0.207252
  O            0.413802      -11.001731        3.506989
  H           -0.377385      -10.575978        3.176530
  H            0.996441      -11.046934        2.748745
  O           10.656181       -5.203313        6.330309
  H           11.024128       -5.161057        5.447543
  H           10.970994       -4.407756        6.759759
  O            9.951447        5.243487        1.261990
  H            9.817067        4.361392        1.608827
  H            9.323683        5.786854        1.738549
  O           -0.624117        8.941453        7.028550
  H           -1.156457        9.513035        7.582042
  H           -0.030249        8.502722        7.637877
  O            3.560533        8.776298        8.573022
  H            3.314852        9.701416        8.557464
  H            4.469248        8.764320        8.272125
  O            8.515878        9.895343        8.993758
  H            8.710580        9.763711        9.921772
  H            7.619263       10.230584        8.981956
  O           -5.047871        8.277524       -7.132047
  H           -4.533026        7.485178       -6.978528
  H           -5.828308        8.165456       -6.589089
  O            5.321565       -3.864165        4.543344
  H            5.573771       -4.335839        3.749391
  H            4.579244       -4.358887        4.890698
  O            3.915673        8.718121       -3.710992
  H            3.048528        8.785394       -4.110965
  H            3.910982        9.376388       -3.015932
  O          -10.478928        1.716836        0.353798
  H           -9.808155        1.904949        1.010397
  H          -10.325670        0.804144        0.108952
  O            6.979229        7.406262        4.299705
  H            6.478689        6.713114        3.869065
  H            7.803230        6.987607        4.549095
  O            1.580287        6.409579       -8.747270
  H            2.297226        6.922952       -8.374587
  H            0.999839        6.234947       -8.006306
  O            0.515716       -2.205478       -7.719096
  H           -0.423402       -2.366620       -7.626710
  H            0.633144       -1.995971       -8.645790
  O            7.350597        6.373755        9.594602
  H            7.973978        5.650513        9.663616
  H            7.896293        7.160151        9.579030
  O           -3.624976       10.648991        9.746929
  H           -4.452233       11.007414        9.425022
  H           -2.977533       10.916659        9.094537
  O            9.143523        2.415293       -5.962491
  H            9.386280        3.071393       -6.615979
  H            9.777972        1.708888       -6.084607
  O           -9.767675        0.913765       -2.581176
  H           -9.623229        0.555751       -3.457194
  H           -8.887999        1.035047       -2.223537
  O           -3.153258       -5.976957        4.960420
  H           -3.746585       -6.460522        5.535375
  H           -3.706914       -5.682977        4.236896
  O            5.067845      -10.997123        6.791490
  H            5.987023      -10.729629        6.793539
  H            4.578630      -10.174453        6.773417
  O           -1.208127      -10.677185       -9.630261
  H           -0.314124      -11.017176       -9.670362
  H           -1.566548      -10.841287      -10.502643
  O           -8.305826       -2.661033        2.646731
  H           -8.899003       -2.637586        1.895708
  H           -8.646301       -3.364598        3.199468
  O           -9.116119       -7.186424        5.441117
  H           -8.955321       -7.939898        4.872904
  H           -9.219008       -7.562825        6.315291
  O           -9.000109        5.225045       -7.029379
  H           -8.084392        4.959397       -6.943713
  H           -8.968721        6.031932       -7.543570
  O           -2.177997       -4.844877       -7.190334
  H           -2.816596       -4.260576       -7.599269
  H           -2.142651       -4.560101       -6.277045
  O            6.245583      -10.828346       -3.586221
  H            7.160915      -11.007703       -3.801731
  H            5.769177      -11.004100       -4.397758
  O            8.507575       -5.978660        2.854300
  H            8.207682       -5.070518        2.812025
  H            7.702794       -6.497070        2.859276
  O            0.063595       -7.327689        3.628225
  H           -0.686057       -7.037804        4.148258
  H            0.813663       -6.877310        4.016814
  O           -2.115967       -1.069021       -9.362541
  H           -1.462036       -0.369930       -9.372194
  H           -2.903615       -0.665800       -9.727873
  O            3.238494       -6.872674       -4.107802
  H            2.357679       -6.832162       -3.735017
  H            3.581405       -5.984234       -4.010170
  O           10.113951       -9.104365       -0.917956
  H           11.019619       -8.931985       -0.660087
  H            9.738867       -8.236996       -1.071014
  O            5.316652        3.519215       -6.320686
  H            5.410687        4.461335       -6.179220
  H            6.179057        3.158411       -6.114473
  O           10.749878       -2.565970       -9.030991
  H            9.792740       -2.555360       -9.045832
  H           11.005424       -1.744092       -9.450107
  O           -9.553859      -10.031146        9.146027
  H           -9.474064       -9.339880        8.488586
  H           -9.887821      -10.785989        8.661128
  O            5.606050       -3.249588       -4.682525
  H            6.310487       -2.623004       -4.848670
  H            5.894008       -3.734769       -3.909140
  O            6.194724       -1.315945        9.019617
  H            5.257889       -1.238812        9.200823
  H            6.488843       -0.414337        8.889068
  O           -4.400963       -3.652070        5.954987
  H           -4.565295       -2.955687        6.590983
  H           -5.268361       -4.004981        5.756193
  O            7.283209        8.851574        6.619137
  H            7.217434        7.999119        7.049763
  H            8.215814        8.952498        6.428070
  O          -10.528384        5.615267        3.523249
  H          -11.000259        4.952644        4.027937
  H          -10.941752        6.443127        3.768645
  O           11.013043       -6.628938        8.701660
  H           11.017150       -5.779219        9.142575
  H           10.971224       -7.268151        9.413069
  O           -6.125283       -4.834158        1.761781
  H           -6.161844       -4.382440        2.605024
  H           -6.649402       -4.289085        1.174721
  O            7.996109        1.008469       -8.057879
  H            8.041830        0.082027       -8.294648
  H            7.110201        1.124817       -7.714259
  O           -4.508306       -6.129439       -4.007544
  H           -4.360338       -7.002944       -4.370226
  H           -3.769209       -5.609876       -4.324142
  O            2.003664      -10.568027       -5.379083
  H            2.931940      -10.798619       -5.418775
  H            1.996087       -9.612460       -5.321814
  O            3.160661        7.327735       -1.228451
  H            3.804921        6.821223       -1.723244
  H            2.411742        7.406002       -1.819586
  O            3.169545        1.648287        9.755543
  H            2.289723        1.582081       10.126994
  H            3.385496        0.754412        9.489468
  O           -3.317194        7.488199        0.354103
  H           -2.384369        7.618094        0.525596
  H           -3.358837        7.237960       -0.568985
  O           10.311625        3.638670       -1.197188
  H            9.477924        4.109188       -1.197822
  H           10.974406        4.325059       -1.119488
  O           -3.510829       -9.466821       -2.135086
  H           -4.362897       -9.350273       -2.555611
  H           -3.537470      -10.356015       -1.781435
  O            1.048866        4.635540      -10.958549
  H            1.982767        4.841784      -11.000228
  H            1.017830        3.716049      -10.693940
  O           -3.171079        5.242775        8.448671
  H           -3.920506        4.660577        8.322773
  H           -3.557403        6.112998        8.548223
  O           10.336558        6.498650       -7.830278
  H           10.333178        5.542280       -7.872590
  H            9.439877        6.751680       -8.050241
  O            0.602993       -7.825513       -1.632900
  H            1.004095       -8.569311       -1.183093
  H           -0.321937       -7.868520       -1.389797
  O           -6.498801        5.543434        3.164091
  H           -7.428246        5.611727        3.382983
  H           -6.413591        4.687562        2.743773
  O            4.822730        9.605868       -8.333251
  H            4.882422       10.411623       -8.846711
  H            3.910143        9.331063       -8.423320
  O           -5.752450        9.690959       -1.657728
  H           -4.977704        9.377074       -1.191156
  H           -6.482593        9.491871       -1.071470
  O            0.273050       -8.866366       -7.330693
  H           -0.101776       -8.375757       -6.599082
  H           -0.092677       -9.746576       -7.241708
  O          -10.244129        8.653090        5.248340
  H          -11.008722        8.996918        4.786145
  H          -10.334056        8.985780        6.141467
  O           -9.036571        2.078454       -6.785027
  H           -9.801069        2.594338       -7.041643
  H           -9.401706        1.262040       -6.443572
  O            0.598937       -7.910347       10.935657
  H            0.039218       -8.686663       10.913442
  H            1.490254       -8.258094       10.968366
  O            2.366958        3.994877       -6.903655
  H            2.995107        4.413862       -7.492149
  H            2.620487        3.071755       -6.900031
  O           -7.521735       -7.675207        0.322027
  H           -8.072969       -8.004379       -0.388067
  H           -7.268167       -6.795909        0.040990
  O            4.533008       -4.823936       10.221228
  H            4.585914       -3.868151       10.232183
  H            5.445014       -5.114803       10.230614
  O            6.474005        3.435136       -3.394374
  H            5.867438        4.170374       -3.483514
  H            7.323627        3.792337       -3.653208
  O           10.012726      -10.042197        6.948344
  H            9.975912      -10.998784        6.942761
  H            9.095879       -9.766871        6.954044
  O           -4.870733       -5.052942       11.007629
  H           -5.633640       -5.630833       10.986184
  H           -4.119723       -5.646035       10.981730
  O            2.245446       -2.913249        7.783577
  H            2.627455       -3.610453        8.316889
  H            2.658495       -3.013667        6.925818
  O            4.321484        4.199293        5.257765
  H            3.515995        4.441862        5.714703
  H            4.535843        4.965960        4.726055
  O           -4.577256        9.054646      -10.194943
  H           -5.365889        9.541086      -10.435523
  H           -4.468993        8.411480      -10.895700
  O           10.647690        7.268017      -10.504377
  H           10.136358        8.065117      -10.364317
  H            9.998480        6.604594      -10.738558
  O           -1.835435        8.530329       10.059163
  H           -1.721179        8.457317       11.006823
  H           -1.613145        7.661935        9.723121
  O           -6.724099       -4.622294       -2.292737
  H           -6.144957       -4.201298       -2.928191
  H           -6.147610       -4.869009       -1.569386
  O            1.626937       -8.637886        1.584829
  H            1.577962       -7.707584        1.364409
  H            2.525869       -8.765525        1.888267
  O            7.833153       -2.518495        0.685326
  H            7.421570       -2.780215        1.509065
  H            7.393596       -3.046940        0.019008
  O            7.917741        6.945736       -2.994484
  H            8.379498        6.153423       -2.719775
  H            7.035984        6.645231       -3.215044
  O            7.346221       -5.434387        5.541626
  H            8.129294       -5.983874        5.577769
  H            6.617602       -6.048975        5.630176
  O            8.833847       -8.706212        1.482825
  H            8.000474       -8.539373        1.042257
  H            8.789852       -9.627745        1.738335
  O            8.724435       -2.533903        4.489885
  H            9.025823       -3.380284        4.820412
  H            7.778238       -2.638836        4.389155
  O            0.518201       -5.695569       -6.519502
  H            1.364337       -5.915467       -6.129446
  H            0.569264       -4.754698       -6.688615
  O           -1.915377        8.927333       -2.347680
  H           -2.245821        9.544661       -3.000489
  H           -1.960588        9.406320       -1.520049
  O            8.988050       -6.103716       10.969779
  H            8.042304       -6.233406       11.041825
  H            9.104268       -5.154623       11.016253
  O            9.645527        0.019346       10.565439
  H            8.827904        0.094444       11.057677
  H            9.474188        0.480123        9.743993
  O            8.907280       -5.349638       -0.296476
  H            9.485351       -4.689538       -0.679288
  H            9.474607       -5.858275        0.283070
  O           -2.571391       -3.513105       10.197271
  H           -2.951834       -3.084106       10.963865
  H           -1.678566       -3.732859       10.463761
  O            8.522705        9.273594       -7.450591
  H            8.324239        8.964261       -6.566640
  H            9.466514        9.433603       -7.442495
  O           -8.481180       -2.841772       -3.433022
  H           -9.129991       -2.145599       -3.328946
  H           -8.994581       -3.615137       -3.667054
  O           -2.819740       -7.640603        2.521638
  H           -2.773866       -8.443431        3.041069
  H           -3.735665       -7.583154        2.249196
  O            3.211374       -9.226302       -2.685852
  H            4.149507       -9.372258       -2.563175
  H            2.838307      -10.105518       -2.751003
  O           -8.661927        5.091826       -2.297306
  H           -7.705791        5.069754       -2.339263
  H           -8.861840        5.881947       -1.795123
  O          -10.092760        4.718866      -10.141346
  H          -10.683837        4.191654      -10.679045
  H           -9.861539        4.147883       -9.408571
  O            5.723611        8.185306       10.916983
  H            4.861647        8.595572       10.988713
  H            6.342747        8.907214       11.026364
  O            4.484577        2.213303        7.266193
  H            4.009665        1.570456        6.739266
  H            5.200925        1.716793        7.662133
  O           -2.778276        6.226519        5.911019
  H           -2.145593        6.944250        5.879064
  H           -2.398024        5.546585        5.354653
  O           -8.652228        3.832417        9.502874
  H           -8.695081        4.788706        9.491868
  H           -7.770797        3.628166        9.190133
  O           -4.265839        0.550332        7.343384
  H           -4.077126       -0.264640        6.877924
  H           -4.674588        0.269755        8.162313
  O           -3.002073       -5.612765        8.469845
  H           -2.052203       -5.685692        8.564051
  H           -3.289714       -6.498203        8.246895
  O           -2.039301        8.523008       -5.550311
  H           -1.241449        9.051896       -5.562738
  H           -2.747140        9.153448       -5.684309
  O            7.481193        3.738717       -8.483378
  H            7.899759        4.570182       -8.706790
  H            6.567797        3.851526       -8.746868
  O            9.070067        1.599517       -2.561452
  H            9.464390        0.730100       -2.632649
  H            8.129837        1.431853       -2.495880
  O            5.279095       -3.509272        7.595428
  H            6.087531       -3.306000        7.124731
  H            5.216524       -4.464005        7.563556
  O            1.838096        7.578743       10.777162
  H            0.885371        7.592837       10.869683
  H            2.115054        8.464511       11.012013
  O            1.821580        9.791630        5.649307
  H            1.660874        8.859900        5.499311
  H            2.751821        9.842193        5.869623
  O            5.726162        8.055127       -6.250151
  H            4.785442        7.890242       -6.184544
  H            6.031312        8.067955       -5.342867
  O            5.316226        5.695888        7.873059
  H            5.823088        5.629133        7.063689
  H            4.974887        4.812973        8.015862
  O           -1.255325        7.846365       -8.353084
  H           -2.175718        7.585820       -8.391014
  H           -1.278466        8.801986       -8.301147
  O           -8.149040       -4.286724        6.511461
  H           -8.370519       -5.050689        7.044141
  H           -8.182798       -4.605331        5.609355
  O           10.785975       -1.719243       -5.071292
  H           10.005610       -2.175928       -5.385800
  H           10.489126       -0.824732       -4.903431
  O           -7.514876        8.770664        7.548693
  H           -8.009933        9.587330        7.482212
  H           -8.184040        8.088148        7.601943
  O            7.904795        8.763722        1.827605
  H            8.626956        8.380791        2.325895
  H            7.665924        8.087632        1.193345
  O           10.945422       -3.036820        9.333426
  H           11.000098       -3.267138       10.261008
  H           10.982752       -2.080316        9.321142
  O           -5.533370        1.450410       10.861656
  H           -5.820746        1.893188       10.063028
  H           -5.707901        0.523462       10.698097
  O           -9.974825       -7.678421        1.571047
  H          -10.325282       -7.492657        2.442320
  H          -10.094245       -6.862137        1.085388
  O           -1.109674       -8.264332        8.410555
  H           -0.205818       -7.983824        8.266315
  H           -1.060846       -9.219539        8.451059
  O           -9.636185        6.510430        0.892948
  H           -8.745256        6.661099        1.209157
  H          -10.145871        7.233887        1.258016
  O            1.760245       -2.062875       10.599026
  H            1.759556       -1.109888       10.689916
  H            0.953939       -2.258910       10.121651
  O           -1.179784        5.246457       -9.444973
  H           -2.032727        4.942630       -9.134133
  H           -1.374713        5.725181      -10.250747
  O            5.712914       -5.311371       -9.039554
  H            5.099253       -4.578708       -9.094958
  H            6.577827       -4.901172       -9.049874
  O           -5.961599        2.712997       -6.143975
  H           -5.239962        2.451238       -5.571989
  H           -6.309926        1.888421       -6.483368
  O            7.870165       -2.481951       10.989888
  H            7.102517       -3.053877       10.982018
  H            8.313266       -2.663740       10.160997
  O            6.631738       -2.578137       -7.579096
  H            6.539757       -2.215481       -8.460269
  H            7.575613       -2.583907       -7.419375
  O            8.003859        2.717439       11.004002
  H            8.722247        3.349263       10.969910
  H            7.246091        3.197510       10.669689
  O           -5.946199      -10.067204        3.389899
  H           -6.501998       -9.780218        4.114586
  H           -5.057447       -9.842334        3.665576
  O            6.221510        0.662551      -10.274630
  H            5.620196        1.016587      -10.930012
  H            6.163019       -0.286764      -10.383371
  O            5.460201       -0.740432        6.359792
  H            5.734611       -1.010622        5.483355
  H            4.580486       -1.104796        6.458713
  O           -0.396850      -10.449783       -2.652207
  H            0.151386      -10.057991       -3.332193
  H            0.199635      -11.011683       -2.157314
  O           -2.302186       -0.814431        9.481487
  H           -1.482590       -0.996821        9.941313
  H           -2.041379       -0.286830        8.726462
  O            3.868636       -3.733289       -6.758274
  H            3.907383       -4.605899       -6.366489
  H            2.977287       -3.431112       -6.583262
  O           -3.812981       -7.019098       -0.473212
  H           -3.895339       -6.842122       -1.410411
  H           -2.951059       -7.425249       -0.380608
  O           -7.504431       -9.537645       11.000906
  H           -7.474488      -10.494488       11.000990
  H           -6.822798       -9.276358       10.381592
  O           -4.059157       10.823457       -7.452557
  H           -4.568032       10.998518       -8.244292
  H           -3.149412       10.961401       -7.716717
  O            5.708002       -5.703450        0.445959
  H            6.014950       -5.137961        1.154796
  H            6.207283       -6.513353        0.551886
  O            8.879699        0.876879        0.269153
  H            8.733399        1.816533        0.159191
  H            8.029368        0.478335        0.083290
  O           11.001440       -6.194253       -2.410914
  H           11.029757       -5.347790       -2.857170
  H           11.001032       -6.838739       -3.118786
  O           -9.728701       -1.653166        6.139248
  H           -9.829564       -2.309003        5.449213
  H          -10.543535       -1.703690        6.639186
  O            0.856026        5.464082        5.851894
  H            0.137206        4.976232        6.254069
  H            0.542419        6.367883        5.816682
  O            8.770330       -9.488370        9.998521
  H            9.643140       -9.664475        9.646903
  H            8.580473       -8.589293        9.730082
  O           -0.881504       -7.618721       -4.070542
  H           -1.713497       -7.325849       -3.698441
  H           -0.367929       -6.817026       -4.170397
  O           -5.650435        5.917948       -5.014510
  H           -6.513420        5.589243       -4.762209
  H           -5.090618        5.141417       -5.021597
  O           -3.166089        1.807361       -8.554875
  H           -4.083380        1.534146       -8.574276
  H           -2.860071        1.558552       -7.682584
  O           -8.967147        9.548391       -9.096095
  H           -9.523371        8.769289       -9.103783
  H           -9.578926       10.280684       -9.173017
  O           -3.431752       10.298865        1.763570
  H           -2.837327       11.003308        2.022153
  H           -3.288903       10.197805        0.822386
  O            4.411866        7.577829        5.721153
  H            3.697107        7.144764        6.188079
  H            4.087978        7.677341        4.825809
  C           -7.139850       -8.551484       -7.166416
  C           -8.148456       -7.441583       -6.773493
  C           -9.102120       -8.079741       -5.714860
  C           -9.063709       -7.097644       -7.980662
  C           -8.488329       -6.103700       -8.977513
  O           -7.569849       -6.704940       -9.885234
  C           -7.910977       -4.880143       -8.283058
  C           -6.969281       -5.173215       -7.082827
  C           -5.531513       -5.457540       -7.588334
  C           -6.891790       -3.827751       -6.294697
  N           -7.577688       -6.198758       -6.203229
  O           -6.683628       -6.516162       -5.122632
  H           -7.659928       -9.398236       -7.630876
  H           -6.614635       -8.953443       -6.292123
  H           -6.378915       -8.224778       -7.871599
  H           -8.559399       -8.466914       -4.844920
  H           -9.657887       -8.921194       -6.146483
  H           -9.839032       -7.353133       -5.351209
  H           -9.349173       -8.017980       -8.506620
  H           -9.996413       -6.657676       -7.598523
  H           -9.312732       -5.762137       -9.615440
  H           -6.826200       -7.018213       -9.347638
  H           -7.392176       -4.253319       -9.019997
  H           -8.765438       -4.289660       -7.921444
  H           -5.430789       -6.400878       -8.120319
  H           -4.806111       -5.474400       -6.766554
  H           -5.201536       -4.669052       -8.275787
  H           -6.168626       -3.867813       -5.472095
  H           -7.865823       -3.557292       -5.868837
  H           -6.583210       -3.006448       -6.953071
