1021
Lattice="22.000000 0.0 0.0  0.0 22.000000 0.0  0.0 0.0 22.000000" Origin="-11.000000 -11.000000 -11.000000" pbc="T T T" Properties=species:S:1:pos:R:3 lattice_constant=3.5670 diameter_nm=1.0000 rg_angstrom=4.3923 d_equiv_rg_nm=1.1341 r_max_angstrom=6.3877 r_inscribed_angstrom=4.7194 config_hash=b20309ea21e1 seed=1 shape=wulff wulff_ratio=0.99 termination=mixed oh_o_ratio=4 n_water=272 n_water_source=derived_from_box box_nm=2.200000 box_source=explicit water_density=1 nv=1 rotate_111=1 manifest=diamond_water.manifest.json
CS -4.219806 1.130694 -0.000000
CS -4.219806 1.130694 1.544556
CS -3.842908 -0.275908 -2.574261
CS -3.842908 -0.275908 2.059408
CS -3.466011 -1.682511 -2.059408
CS -3.466011 -1.682511 -0.514852
CS -3.190102 2.160398 -2.574261
CS -3.190102 2.160398 2.059408
CS -3.089113 -3.089113 -0.000000
CS -3.089113 -3.089113 1.544556
C -2.813204 0.753796 -2.059408
C -2.813204 0.753796 -0.514852
C -2.436306 -0.652806 -0.000000
C -2.436306 -0.652806 1.544556
CS -2.160398 3.190102 -2.059408
CS -2.160398 3.190102 -0.514852
CS -2.059408 -2.059408 -2.574261
C -2.059408 -2.059408 2.059408
CS -2.059408 -2.059408 3.603965
C -1.783500 1.783500 0.000000
C -1.783500 1.783500 1.544556
CS -1.682511 -3.466011 -2.059408
CS -1.682511 -3.466011 -0.514852
CS -1.406602 0.376898 -4.118817
C -1.406602 0.376898 -2.574261
C -1.406602 0.376898 2.059408
CS -1.406602 0.376898 3.603965
CS -1.130694 4.219806 0.000000
CS -1.130694 4.219806 1.544556
C -1.029704 -1.029704 -2.059408
C -1.029704 -1.029704 -0.514852
CS -1.029704 -1.029704 4.118817
CS -0.753796 2.813204 -2.574261
C -0.753796 2.813204 2.059408
CS -0.753796 2.813204 3.603965
C -0.652806 -2.436306 -0.000000
C -0.652806 -2.436306 1.544556
C -0.376898 1.406602 -2.059408
C -0.376898 1.406602 -0.514852
CS -0.376898 1.406602 4.118817
CS -0.275908 -3.842908 -2.574261
OS -0.275908 -3.842908 2.059408
CS 0.000000 0.000000 -4.633669
N -0.000000 -0.000000 1.544556
CS 0.275908 3.842908 -2.059408
CS 0.275908 3.842908 -0.514852
CS 0.376898 -1.406602 -4.118817
C 0.376898 -1.406602 -2.574261
C 0.376898 -1.406602 2.059408
CS 0.376898 -1.406602 3.603965
C 0.652806 2.436306 0.000000
C 0.652806 2.436306 1.544556
C 0.753796 -2.813204 -2.059408
C 0.753796 -2.813204 -0.514852
OS 1.029704 1.029704 -4.118817
C 1.029704 1.029704 -2.574261
C 1.029704 1.029704 2.059408
CS 1.029704 1.029704 3.603965
CS 1.130694 -4.219806 -0.000000
CS 1.130694 -4.219806 1.544556
C 1.406602 -0.376898 -2.059408
C 1.406602 -0.376898 -0.514852
CS 1.406602 -0.376898 4.118817
CS 1.682511 3.466011 -2.574261
CS 1.682511 3.466011 2.059408
C 1.783500 -1.783500 0.000000
C 1.783500 -1.783500 1.544556
C 2.059408 2.059408 -2.059408
C 2.059408 2.059408 -0.514852
OS 2.160398 -3.190102 -2.574261
CS 2.160398 -3.190102 2.059408
C 2.436306 0.652806 0.000000
C 2.436306 0.652806 1.544556
CS 2.813204 -0.753796 -2.574261
C 2.813204 -0.753796 2.059408
CS 2.813204 -0.753796 3.603965
OS 3.089113 3.089113 0.000000
CS 3.089113 3.089113 1.544556
CS 3.190102 -2.160398 -2.059408
CS 3.190102 -2.160398 -0.514852
OS 3.466011 1.682511 -2.574261
CS 3.466011 1.682511 2.059408
CS 3.842908 0.275908 -2.059408
CS 3.842908 0.275908 -0.514852
CS 4.219806 -1.130694 0.000000
OS 4.219806 -1.130694 1.544556
H -4.485568 2.123444 -0.363204
H -4.946338 0.403827 -0.363204
O -5.522084 1.479638 2.021223
H -4.835465 -0.009954 -2.210669
O -3.842562 -0.276001 -4.004260
H -4.569511 -1.002511 1.695817
H -3.842715 -0.275715 3.149408
O -4.419344 -2.635844 -2.536075
O -4.768288 -1.333566 -0.038185
H -4.182659 2.426353 -2.210669
O -3.189755 2.160305 -4.004260
H -3.190031 2.160133 3.149408
H -3.456057 3.152955 1.695817
H -3.815779 -3.815779 -0.363333
H -2.822893 -4.081740 1.907761
O -4.391367 -2.739852 2.021054
O -2.509342 4.492380 -2.536075
O -3.462675 3.539046 -0.038185
H -2.059408 -2.059408 -3.664261
H -1.793189 -3.052036 3.967169
O -3.361663 -1.710148 4.080462
O -2.635844 -4.419344 -2.536075
H -1.416532 -4.458656 -0.151519
H -1.672363 1.369648 -4.482021
H -2.133133 -0.349969 -4.482021
O -2.708880 0.725842 4.080631
H -1.396672 5.212451 -0.363333
H -2.123444 4.485568 1.907761
H -0.403827 4.946338 1.907761
H -1.029704 -1.029704 5.208817
O -0.753796 2.813204 -4.004261
H -1.746546 3.078965 3.967169
O 0.199800 3.766360 4.080462
H -0.376898 1.406602 5.208817
H -0.275979 -3.842644 -3.664260
H -0.009954 -4.835465 -2.210669
O -0.000000 -0.000000 -6.063669
O -0.073036 5.145186 -2.536075
O 1.229242 4.796242 -0.038185
H 1.369648 -1.672363 -4.482021
H -0.349969 -2.133133 -4.482021
H 0.642876 -2.399247 3.967298
H 1.756371 1.756371 3.967298
H 2.123444 -4.485568 -0.363204
H 0.403827 -4.946338 -0.363204
O 1.479638 -5.522084 2.021223
H 1.406602 -0.376898 5.208817
O 2.635759 4.419259 -2.097255
H 1.682317 3.465817 -3.664260
H 1.682581 3.465746 3.149408
H 1.416556 4.458567 1.695817
H 3.152955 -3.456057 1.695817
O 2.160051 -3.190009 3.489408
O 2.813204 -0.753796 -4.004261
H 3.078965 -1.746546 3.967169
O 3.766360 0.199800 4.080462
H 3.815779 3.815779 1.907890
O 4.492380 -2.509342 -2.536075
O 3.539046 -3.462675 -0.038185
O 4.768172 1.333597 1.582403
H 3.465746 1.682581 3.149408
H 4.835554 0.009930 -2.422742
H 4.569575 1.002575 -0.151519
O 5.522084 -1.479638 -0.476667
H 3.884894 -0.021265 5.007112
H -3.878907 -2.512116 3.976021
H -0.175598 4.091917 4.901857
H -3.997045 1.699840 -4.244791
H -4.757849 -0.114876 -4.244858
H 5.291230 1.212552 2.378241
H 4.480728 -3.467904 -2.587287
H -5.223456 -0.991441 -0.811085
H -5.446123 2.402586 2.274200
H -0.003627 5.078119 -3.491211
H 5.773656 -0.748513 -1.045673
H -3.308095 3.910075 0.833619
H 3.223850 -4.060597 -0.719904
H 0.807026 5.647467 -0.175110
H -3.201963 -0.097521 4.057342
H -4.975035 -2.922379 1.281043
H -1.338489 3.535671 -4.244625
H 0.361136 -0.856391 -6.304034
H 1.835789 -4.061037 3.729751
H 3.085744 -1.642360 -4.244625
H -3.277096 4.346517 -3.093639
H 3.445995 3.915740 -1.989617
H -2.441984 -5.220116 -2.043345
H -5.236212 -2.138315 -2.618491
H 2.240013 -5.775661 1.492898
C_TEMPOL -7.139850 -8.551484 -7.166416
C_TEMPOL -8.148456 -7.441583 -6.773493
C_TEMPOL -9.102120 -8.079741 -5.714860
C_TEMPOL -9.063709 -7.097644 -7.980662
C_TEMPOL -8.488329 -6.103700 -8.977513
O_TEMPOL -7.569849 -6.704940 -9.885234
C_TEMPOL -7.910977 -4.880143 -8.283058
C_TEMPOL -6.969281 -5.173215 -7.082827
C_TEMPOL -5.531513 -5.457540 -7.588334
C_TEMPOL -6.891790 -3.827751 -6.294697
N_TEMPOL -7.577688 -6.198758 -6.203229
O_TEMPOL -6.683628 -6.516162 -5.122632
H_TEMPOL -7.659928 -9.398236 -7.630876
H_TEMPOL -6.614635 -8.953443 -6.292123
H_TEMPOL -6.378915 -8.224778 -7.871599
H_TEMPOL -8.559399 -8.466914 -4.844920
H_TEMPOL -9.657887 -8.921194 -6.146483
H_TEMPOL -9.839032 -7.353133 -5.351209
H_TEMPOL -9.349173 -8.017980 -8.506620
H_TEMPOL -9.996413 -6.657676 -7.598523
H_TEMPOL -9.312732 -5.762137 -9.615440
H_TEMPOL -6.826200 -7.018213 -9.347638
H_TEMPOL -7.392176 -4.253319 -9.019997
H_TEMPOL -8.765438 -4.289660 -7.921444
H_TEMPOL -5.430789 -6.400878 -8.120319
H_TEMPOL -4.806111 -5.474400 -6.766554
H_TEMPOL -5.201536 -4.669052 -8.275787
H_TEMPOL -6.168626 -3.867813 -5.472095
H_TEMPOL -7.865823 -3.557292 -5.868837
H_TEMPOL -6.583210 -3.006448 -6.953071
OW -6.251845 -4.057172 8.488519
HW -5.791386 -3.400871 9.011675
HW -5.615925 -4.763919 8.376452
OW -5.850372 3.291194 6.615530
HW -5.787877 2.837379 7.456120
HW -4.975098 3.213969 6.235560
OW 9.849468 -7.485103 -6.703638
HW 10.136212 -8.313197 -7.088975
HW 9.470449 -7.731664 -5.859839
OW 0.192440 8.571310 0.642670
HW -0.172092 9.453369 0.568287
HW 1.055690 8.633204 0.233509
OW 10.080495 2.293775 3.435054
HW 9.963885 1.807989 2.618439
HW -10.981716 2.234048 3.617895
OW -1.576680 2.725995 7.790293
HW -2.387858 2.382886 8.165408
HW -1.862805 3.266906 7.054091
OW 10.335593 0.968686 6.927809
HW 10.747501 1.009933 6.064631
HW -10.933676 0.865919 7.537658
OW -7.708603 0.301984 -8.409735
HW -7.825111 -0.488985 -7.883200
HW -8.519755 0.377085 -8.912564
OW 8.038361 1.090723 5.422821
HW 8.231887 0.155655 5.354701
HW 7.439774 1.158234 6.166851
OW -2.733992 10.487413 5.551110
HW -2.634358 9.579590 5.264098
HW -2.586120 -10.993433 4.760504
OW 5.992330 8.311117 -0.976987
HW 6.278187 8.830716 -1.728484
HW 5.359344 8.869890 -0.525825
OW -9.170606 9.164504 -1.585927
HW -9.676680 9.840900 -1.135569
HW -9.037281 8.484771 -0.925146
OW 10.900142 -8.570099 -10.165971
HW -10.995106 -9.501222 -9.969803
HW 10.028210 -8.352104 -9.836339
OW -7.188637 -1.709772 4.972354
HW -6.342698 -1.789799 4.531416
HW -6.993631 -1.868349 5.896081
OW 8.485618 10.982915 4.581978
HW 9.308298 -10.940141 4.098529
HW 7.808062 10.993988 3.905783
OW 7.529659 4.273057 5.130168
HW 6.962772 3.554458 4.849633
HW 8.329789 4.161985 4.616456
OW -9.766288 -4.566328 -0.468881
HW -9.987420 -3.635997 -0.423820
HW -8.809682 -4.584248 -0.500947
OW 5.147402 -9.708947 1.974902
HW 5.392312 -8.788761 1.876308
HW 5.974370 -10.186109 1.905006
OW 2.628675 -6.595386 -8.966825
HW 1.839755 -7.003426 -8.609681
HW 2.666993 -5.737079 -8.544585
OW -8.255950 8.354960 3.372907
HW -7.803664 8.910510 4.007924
HW -8.569842 8.962692 2.703147
OW -8.162884 -10.154014 1.324562
HW -8.424297 -10.333503 2.227830
HW -8.214459 10.996321 0.886551
OW 6.570692 -9.664636 -1.019106
HW 6.300948 -10.566153 -0.843179
HW 7.458184 -9.743756 -1.369168
OW 2.369588 -10.105699 -9.070751
HW 3.109003 -9.510473 -9.194916
HW 2.425998 -10.370026 -8.152386
OW -7.694000 -6.447230 9.358356
HW -8.312494 -7.045021 9.778540
HW -7.122196 -7.016662 8.843349
OW 3.965675 -1.991390 -9.581355
HW 3.284752 -2.513824 -9.157268
HW 3.726950 -1.084501 -9.388981
OW 10.034487 9.548087 -4.348591
HW 9.691781 8.666734 -4.199546
HW 10.932244 9.515508 -4.017812
OW 0.709631 0.023298 8.414970
HW 0.368221 0.788739 7.952385
HW 1.427940 -0.288980 7.864553
OW 7.467109 -0.259474 2.710990
HW 7.454346 0.696174 2.765939
HW 8.396914 -0.485925 2.685914
OW -1.128469 2.121696 10.663469
HW -0.434580 1.485816 10.488485
HW -1.920721 1.592543 10.757166
OW -9.342980 5.790419 6.610336
HW -9.091670 6.215926 5.790438
HW -8.655217 5.142755 6.765122
OW -7.089590 -9.248101 6.747712
HW -6.818417 -9.469965 7.638603
HW -6.615270 -8.441271 6.546487
OW 8.823463 9.862951 -1.612762
HW 8.645648 9.875870 -0.672198
HW 9.671781 10.297399 -1.702518
OW -7.014069 8.140290 -3.866002
HW -7.158413 7.670589 -3.044424
HW -7.690970 8.817134 -3.877498
OW -7.105577 -7.805354 -2.954613
HW -7.740492 -7.088902 -2.959551
HW -6.357623 -7.459706 -2.467235
OW 3.707733 -7.907831 -6.804654
HW 4.405030 -7.258139 -6.894780
HW 4.165354 -8.748089 -6.773124
OW -9.090338 9.626712 -6.101527
HW -8.650146 8.853320 -6.454432
HW -9.947955 9.629619 -6.526887
OW 1.236656 0.645665 -8.178170
HW 2.004234 0.281039 -7.737355
HW 1.446292 0.589588 -9.110561
OW -6.777104 -6.882896 3.569456
HW -6.416165 -7.355848 2.819466
HW -6.123825 -6.994278 4.260299
OW -6.254788 7.072781 -9.289143
HW -6.468073 6.423776 -8.618512
HW -7.050788 7.597261 -9.377176
OW -9.187411 -10.713591 5.086762
HW -9.928425 -10.487841 4.524285
HW -9.449098 -10.417399 5.958677
OW 8.261670 3.474148 8.008171
HW 8.464851 2.580532 8.284962
HW 7.342159 3.440244 7.743987
OW 6.847938 -5.077262 -6.319246
HW 7.634507 -5.547802 -6.595554
HW 6.374521 -5.702775 -5.770562
OW -7.965959 -1.140333 -0.781928
HW -7.728517 -2.051481 -0.609081
HW -8.054872 -0.746769 0.086200
OW 10.305457 -8.383918 4.654166
HW 9.555561 -8.201605 4.087718
HW 10.200092 -7.783522 5.392319
OW -5.304239 -9.274485 0.027049
HW -4.971081 -9.609246 0.859747
HW -5.929483 -9.937855 -0.265277
OW 8.046012 -10.344011 -9.490359
HW 7.277128 -10.740876 -9.899947
HW 8.734184 10.996985 -9.582979
OW 5.204889 5.038553 10.746711
HW 4.554116 5.719956 10.577510
HW 4.698700 4.226767 10.781661
OW 10.920655 1.463100 -9.197289
HW 10.700806 0.824701 -8.518645
HW 10.268788 2.156603 -9.094487
OW 8.469000 -5.309813 8.221957
HW 8.318287 -6.251373 8.306782
HW 7.716764 -4.906448 8.655413
OW 4.167303 2.527038 -9.112950
HW 4.180115 1.672713 -8.681198
HW 3.301400 2.578179 -9.517970
OW -0.709211 -9.849996 0.545112
HW -1.044438 -9.064865 0.978283
HW -1.373022 -10.064170 -0.110578
OW -3.668761 7.285863 -3.686369
HW -3.239159 6.561314 -3.231489
HW -4.414793 7.509865 -3.129859
OW -1.215900 -2.891794 7.887322
HW -0.483884 -2.328306 7.636168
HW -1.927990 -2.635607 7.301028
OW -1.701778 5.134951 -5.890084
HW -2.371785 5.799013 -5.727120
HW -0.922808 5.634984 -6.134252
OW -6.187853 0.816374 5.395043
HW -6.338508 1.416245 4.664357
HW -6.981489 0.881464 5.926411
OW 10.422989 7.922940 8.807900
HW 10.998387 8.687867 8.792109
HW -10.981648 7.174129 8.772263
OW -2.461932 -9.792809 -4.655728
HW -3.325343 -9.988925 -5.019740
HW -1.852968 -10.291629 -5.200510
OW 7.693374 -2.040981 -2.544054
HW 7.634417 -1.233080 -2.033891
HW 8.372251 -1.864338 -3.195490
OW -7.684711 3.511565 -0.073336
HW -7.342068 3.084098 0.711720
HW -8.354220 4.112642 0.253634
OW 5.261103 6.890948 -8.701635
HW 4.872244 6.016177 -8.704837
HW 6.204022 6.734132 -8.649129
OW 6.411521 -8.367791 -5.093692
HW 7.161584 -8.347842 -4.499173
HW 5.656621 -8.186309 -4.533661
OW 4.324621 6.626815 1.367712
HW 4.253889 6.375528 2.288742
HW 5.262934 6.751161 1.224353
OW 7.798132 0.192601 -4.928103
HW 7.853991 -0.477996 -5.609002
HW 6.914533 0.099556 -4.571674
OW 7.953544 -9.955203 -6.769569
HW 8.518870 -10.333435 -6.095928
HW 7.143929 -10.463271 -6.716313
OW 8.468809 -1.933515 7.161179
HW 8.938393 -2.702911 7.483617
HW 8.823830 -1.204873 7.670576
OW 0.081663 3.141286 -8.172883
HW -0.557136 2.662831 -8.701524
HW -0.331071 3.222149 -7.312908
OW -4.262886 -1.059180 -6.952436
HW -4.766986 -1.141385 -7.762109
HW -4.588236 -0.254853 -6.547899
OW -8.688397 8.657237 10.278472
HW -7.753908 8.864874 10.286330
HW -8.721511 7.700529 10.270761
OW -6.342972 6.292109 5.819533
HW -6.228989 7.155776 5.422629
HW -5.495894 5.861336 5.704042
OW -6.721232 -0.941163 -4.375592
HW -6.856211 -1.174897 -5.294066
HW -6.763841 0.015112 -4.362646
OW 10.099565 -4.422658 -7.051045
HW -10.995852 -4.346661 -6.747072
HW 10.151799 -4.990424 -7.820043
OW 5.057226 -0.461370 -6.803105
HW 4.839844 0.357889 -6.358127
HW 4.285926 -1.014399 -6.677809
OW -6.336211 5.968863 -0.107054
HW -5.611489 5.662732 -0.652496
HW -6.592897 6.804942 -0.496322
OW 1.833182 3.535855 8.183382
HW 0.965696 3.423374 8.572305
HW 1.785092 3.067109 7.350070
OW -7.769664 0.032987 2.767223
HW -8.471520 0.246732 3.382167
HW -7.614882 0.846859 2.287537
OW 10.498295 -9.591703 -3.596842
HW 9.584575 -9.306358 -3.608602
HW 10.699705 -9.789282 -4.511632
OW -4.140677 8.712106 7.864760
HW -4.911487 8.501095 8.391800
HW -4.298156 8.279410 7.025463
OW 10.192075 -1.703996 -1.140603
HW 10.236210 -1.518838 -0.202406
HW 10.992403 -1.319835 -1.498849
OW 6.675044 -8.570991 4.495507
HW 7.150816 -8.727092 5.311423
HW 5.903281 -9.134132 4.556326
OW 3.352392 -7.230432 -0.679342
HW 3.955376 -7.855915 -0.277314
HW 3.840223 -6.868596 -1.419302
OW -5.591250 8.639216 1.385867
HW -5.954858 7.937848 1.926531
HW -6.069208 9.423213 1.656697
OW -6.157356 5.844189 9.408865
HW -6.215680 6.605439 9.986397
HW -6.476090 6.159727 8.563118
OW 4.582780 9.586426 2.909283
HW 4.390641 9.348394 2.002162
HW 5.502392 9.349329 3.029880
OW -8.729591 3.496912 4.563755
HW -8.817049 2.801811 5.216158
HW -8.364637 3.059354 3.794472
OW 1.787541 8.985468 -6.614331
HW 1.319034 8.269138 -6.185591
HW 1.113541 9.449548 -7.111119
OW -3.529277 -7.574459 -7.058083
HW -3.902550 -8.441426 -7.217712
HW -2.774349 -7.738686 -6.492787
OW -5.604945 10.498074 -4.748116
HW -4.979559 9.940628 -4.284877
HW -6.033235 -10.996297 -4.057210
OW -1.408426 -7.130766 -9.196585
HW -2.219288 -6.629387 -9.283563
HW -1.697777 -8.032667 -9.057673
OW 10.478469 10.167442 1.356767
HW -10.998121 10.899714 1.030783
HW 10.904821 9.913517 2.175419
OW -9.437500 0.871168 10.213780
HW -8.605519 1.259805 10.484362
HW -10.063630 1.594342 10.251562
OW 6.481327 -7.090917 -2.149998
HW 6.286772 -6.218253 -2.492126
HW 7.395653 -7.040787 -1.870824
OW 4.906242 -8.122873 -10.746270
HW 5.743313 -7.741129 10.989101
HW 4.253407 -7.472170 10.995202
OW -0.890564 8.042592 3.144196
HW -1.442755 8.790243 2.914963
HW -0.577142 8.237718 4.027449
OW 0.298030 -5.033085 -9.749733
HW -0.387637 -4.578278 -9.260390
HW 0.864554 -4.333504 -10.075437
OW 3.739029 -6.553986 3.357540
HW 4.528276 -6.878877 3.791107
HW 3.979914 -6.495947 2.432851
OW 10.707795 -3.930012 2.712166
HW 10.418630 -3.776902 1.812508
HW -10.993487 -4.839514 2.716635
OW 0.380938 7.232521 -3.817614
HW -0.552691 7.022807 -3.789299
HW 0.427040 8.155895 -3.569219
OW 5.160272 -10.705857 10.345322
HW 4.243302 -10.733572 10.618895
HW 5.135800 -10.340378 9.460861
OW 8.597762 -4.905126 -4.096810
HW 8.402639 -4.614023 -3.205950
HW 8.602103 -5.860820 -4.041359
OW -10.997603 -1.232277 3.154129
HW -10.900648 -0.797454 2.306796
HW 10.917538 -0.515669 3.783189
OW 0.846006 10.955514 9.530406
HW 1.538488 -10.976597 10.187904
HW 0.348694 10.178193 9.785158
OW 10.845478 3.822733 -4.324751
HW 10.043871 4.116619 -3.891735
HW -10.991736 2.951662 -3.962563
OW 1.362417 -5.905287 9.150942
HW 0.537420 -5.546866 9.478599
HW 1.980021 -5.783830 9.872232
OW -7.994900 2.606633 -4.295646
HW -7.246227 2.732885 -3.712555
HW -8.277387 3.493664 -4.518856
OW -7.052648 -0.969240 8.772061
HW -7.569306 -1.148949 9.557690
HW -7.389819 -0.133469 8.449186
OW -4.052495 6.748690 3.516559
HW -3.265490 6.666429 2.977762
HW -3.999237 7.630238 3.885993
OW -3.936086 -9.058384 6.593427
HW -2.992558 -8.916451 6.515618
HW -4.106828 -9.025309 7.534808
OW 7.122267 4.185602 2.127247
HW 7.058805 3.265565 1.870442
HW 6.225392 4.434640 2.350944
OW 8.575556 5.546768 -5.734574
HW 7.702753 5.933745 -5.804632
HW 9.118421 6.244283 -5.366857
OW 9.685660 5.916216 6.243088
HW 8.951475 5.873776 6.855964
HW 9.957818 6.833906 6.257950
OW 0.051051 -5.210856 6.066903
HW 0.472475 -4.774664 6.807568
HW -0.879836 -5.012549 6.169710
OW -5.936984 10.034440 5.685461
HW -5.369030 9.755403 4.967122
HW -5.404515 10.652866 6.185932
OW -8.713160 -10.024344 -2.576404
HW -7.910167 -10.304642 -2.136995
HW -8.699584 -10.483129 -3.416510
OW -7.353732 3.266289 -10.112990
HW -7.371348 3.001131 -9.193302
HW -7.114690 4.193013 -10.090932
OW 1.894716 6.620941 8.197534
HW 1.118805 6.168630 8.528926
HW 2.631880 6.139038 8.572772
OW -4.487703 4.707214 -7.786449
HW -3.904412 4.133967 -7.288850
HW -5.010760 4.110631 -8.322120
OW -9.850916 7.076158 -4.377714
HW -9.106990 6.518345 -4.605449
HW -10.499297 6.474004 -4.012397
OW -3.465141 -8.796698 10.753130
HW -4.295059 -8.390292 -10.996837
HW -2.913543 -8.064949 10.476133
OW 6.863334 4.871605 -0.817647
HW 7.304296 5.520800 -0.269428
HW 5.982904 5.224708 -0.946516
OW 2.789533 -9.128535 8.581071
HW 2.914679 -8.180135 8.617396
HW 2.191574 -9.263617 7.845786
OW 6.858890 -7.763324 -8.027920
HW 7.700081 -7.794455 -8.483852
HW 6.343626 -8.464525 -8.426999
OW 5.608055 -7.997750 8.100958
HW 5.689682 -7.067091 8.309898
HW 6.507142 -8.289226 7.948871
OW 1.739208 7.439250 2.614194
HW 1.807200 6.985165 3.454211
HW 1.961133 8.348695 2.814455
OW 10.399681 7.013732 -1.065093
HW 9.705086 7.344334 -0.495282
HW 10.472702 7.668913 -1.759247
OW -0.414351 -9.538368 5.722718
HW 0.380410 -9.008064 5.782529
HW -0.174288 -10.375938 6.119318
OW 2.688368 -9.772859 4.501961
HW 3.057284 -8.954586 4.834790
HW 3.419077 -10.201674 4.056283
OW 2.930096 -6.068428 6.413120
HW 2.293941 -6.779387 6.333813
HW 3.781175 -6.506727 6.411186
OW -10.990569 3.578532 7.984875
HW -10.997018 3.634189 7.029205
HW 10.843639 4.474498 8.278479
OW -4.519219 4.219363 10.974407
HW -3.807173 3.590995 10.853625
HW -4.081715 5.068535 -10.962801
OW 3.052596 6.039765 -4.265697
HW 2.742246 6.095914 -5.169563
HW 4.006254 6.004131 -4.341278
OW 2.912199 10.995375 0.339528
HW 3.644625 -10.994855 -0.276833
HW 2.136814 -10.877134 -0.207252
OW 0.413802 10.998269 3.506989
HW -0.377385 -10.575978 3.176530
HW 0.996441 10.953066 2.748745
OW 10.656181 -5.203313 6.330309
HW -10.975872 -5.161057 5.447543
HW 10.970994 -4.407756 6.759759
OW 9.951447 5.243487 1.261990
HW 9.817067 4.361392 1.608827
HW 9.323683 5.786854 1.738549
OW -0.624117 8.941453 7.028550
HW -1.156457 9.513035 7.582042
HW -0.030249 8.502722 7.637877
OW 3.560533 8.776298 8.573022
HW 3.314852 9.701416 8.557464
HW 4.469248 8.764320 8.272125
OW 8.515878 9.895343 8.993758
HW 8.710580 9.763711 9.921772
HW 7.619263 10.230584 8.981956
OW -5.047871 8.277524 -7.132047
HW -4.533026 7.485178 -6.978528
HW -5.828308 8.165456 -6.589089
OW 5.321565 -3.864165 4.543344
HW 5.573771 -4.335839 3.749391
HW 4.579244 -4.358887 4.890698
OW 3.915673 8.718121 -3.710992
HW 3.048528 8.785394 -4.110965
HW 3.910982 9.376388 -3.015932
OW -10.478928 1.716836 0.353798
HW -9.808155 1.904949 1.010397
HW -10.325670 0.804144 0.108952
OW 6.979229 7.406262 4.299705
HW 6.478689 6.713114 3.869065
HW 7.803230 6.987607 4.549095
OW 1.580287 6.409579 -8.747270
HW 2.297226 6.922952 -8.374587
HW 0.999839 6.234947 -8.006306
OW 0.515716 -2.205478 -7.719096
HW -0.423402 -2.366620 -7.626710
HW 0.633144 -1.995971 -8.645790
OW 7.350597 6.373755 9.594602
HW 7.973978 5.650513 9.663616
HW 7.896293 7.160151 9.579030
OW -3.624976 10.648991 9.746929
HW -4.452233 -10.992586 9.425022
HW -2.977533 10.916659 9.094537
OW 9.143523 2.415293 -5.962491
HW 9.386280 3.071393 -6.615979
HW 9.777972 1.708888 -6.084607
OW -9.767675 0.913765 -2.581176
HW -9.623229 0.555751 -3.457194
HW -8.887999 1.035047 -2.223537
OW -3.153258 -5.976957 4.960420
HW -3.746585 -6.460522 5.535375
HW -3.706914 -5.682977 4.236896
OW 5.067845 -10.997123 6.791490
HW 5.987023 -10.729629 6.793539
HW 4.578630 -10.174453 6.773417
OW -1.208127 -10.677185 -9.630261
HW -0.314124 10.982824 -9.670362
HW -1.566548 -10.841287 -10.502643
OW -8.305826 -2.661033 2.646731
HW -8.899003 -2.637586 1.895708
HW -8.646301 -3.364598 3.199468
OW -9.116119 -7.186424 5.441117
HW -8.955321 -7.939898 4.872904
HW -9.219008 -7.562825 6.315291
OW -9.000109 5.225045 -7.029379
HW -8.084392 4.959397 -6.943713
HW -8.968721 6.031932 -7.543570
OW -2.177997 -4.844877 -7.190334
HW -2.816596 -4.260576 -7.599269
HW -2.142651 -4.560101 -6.277045
OW 6.245583 -10.828346 -3.586221
HW 7.160915 10.992297 -3.801731
HW 5.769177 10.995900 -4.397758
OW 8.507575 -5.978660 2.854300
HW 8.207682 -5.070518 2.812025
HW 7.702794 -6.497070 2.859276
OW 0.063595 -7.327689 3.628225
HW -0.686057 -7.037804 4.148258
HW 0.813663 -6.877310 4.016814
OW -2.115967 -1.069021 -9.362541
HW -1.462036 -0.369930 -9.372194
HW -2.903615 -0.665800 -9.727873
OW 3.238494 -6.872674 -4.107802
HW 2.357679 -6.832162 -3.735017
HW 3.581405 -5.984234 -4.010170
OW 10.113951 -9.104365 -0.917956
HW -10.980381 -8.931985 -0.660087
HW 9.738867 -8.236996 -1.071014
OW 5.316652 3.519215 -6.320686
HW 5.410687 4.461335 -6.179220
HW 6.179057 3.158411 -6.114473
OW 10.749878 -2.565970 -9.030991
HW 9.792740 -2.555360 -9.045832
HW -10.994576 -1.744092 -9.450107
OW -9.553859 -10.031146 9.146027
HW -9.474064 -9.339880 8.488586
HW -9.887821 -10.785989 8.661128
OW 5.606050 -3.249588 -4.682525
HW 6.310487 -2.623004 -4.848670
HW 5.894008 -3.734769 -3.909140
OW 6.194724 -1.315945 9.019617
HW 5.257889 -1.238812 9.200823
HW 6.488843 -0.414337 8.889068
OW -4.400963 -3.652070 5.954987
HW -4.565295 -2.955687 6.590983
HW -5.268361 -4.004981 5.756193
OW 7.283209 8.851574 6.619137
HW 7.217434 7.999119 7.049763
HW 8.215814 8.952498 6.428070
OW -10.528384 5.615267 3.523249
HW 10.999741 4.952644 4.027937
HW -10.941752 6.443127 3.768645
OW -10.986957 -6.628938 8.701660
HW -10.982850 -5.779219 9.142575
HW 10.971224 -7.268151 9.413069
OW -6.125283 -4.834158 1.761781
HW -6.161844 -4.382440 2.605024
HW -6.649402 -4.289085 1.174721
OW 7.996109 1.008469 -8.057879
HW 8.041830 0.082027 -8.294648
HW 7.110201 1.124817 -7.714259
OW -4.508306 -6.129439 -4.007544
HW -4.360338 -7.002944 -4.370226
HW -3.769209 -5.609876 -4.324142
OW 2.003664 -10.568027 -5.379083
HW 2.931940 -10.798619 -5.418775
HW 1.996087 -9.612460 -5.321814
OW 3.160661 7.327735 -1.228451
HW 3.804921 6.821223 -1.723244
HW 2.411742 7.406002 -1.819586
OW 3.169545 1.648287 9.755543
HW 2.289723 1.582081 10.126994
HW 3.385496 0.754412 9.489468
OW -3.317194 7.488199 0.354103
HW -2.384369 7.618094 0.525596
HW -3.358837 7.237960 -0.568985
OW 10.311625 3.638670 -1.197188
HW 9.477924 4.109188 -1.197822
HW 10.974406 4.325059 -1.119488
OW -3.510829 -9.466821 -2.135086
HW -4.362897 -9.350273 -2.555611
HW -3.537470 -10.356015 -1.781435
OW 1.048866 4.635540 -10.958549
HW 1.982767 4.841784 10.999772
HW 1.017830 3.716049 -10.693940
OW -3.171079 5.242775 8.448671
HW -3.920506 4.660577 8.322773
HW -3.557403 6.112998 8.548223
OW 10.336558 6.498650 -7.830278
HW 10.333178 5.542280 -7.872590
HW 9.439877 6.751680 -8.050241
OW 0.602993 -7.825513 -1.632900
HW 1.004095 -8.569311 -1.183093
HW -0.321937 -7.868520 -1.389797
OW -6.498801 5.543434 3.164091
HW -7.428246 5.611727 3.382983
HW -6.413591 4.687562 2.743773
OW 4.822730 9.605868 -8.333251
HW 4.882422 10.411623 -8.846711
HW 3.910143 9.331063 -8.423320
OW -5.752450 9.690959 -1.657728
HW -4.977704 9.377074 -1.191156
HW -6.482593 9.491871 -1.071470
OW 0.273050 -8.866366 -7.330693
HW -0.101776 -8.375757 -6.599082
HW -0.092677 -9.746576 -7.241708
OW -10.244129 8.653090 5.248340
HW 10.991278 8.996918 4.786145
HW -10.334056 8.985780 6.141467
OW -9.036571 2.078454 -6.785027
HW -9.801069 2.594338 -7.041643
HW -9.401706 1.262040 -6.443572
OW 0.598937 -7.910347 10.935657
HW 0.039218 -8.686663 10.913442
HW 1.490254 -8.258094 10.968366
OW 2.366958 3.994877 -6.903655
HW 2.995107 4.413862 -7.492149
HW 2.620487 3.071755 -6.900031
OW -7.521735 -7.675207 0.322027
HW -8.072969 -8.004379 -0.388067
HW -7.268167 -6.795909 0.040990
OW 4.533008 -4.823936 10.221228
HW 4.585914 -3.868151 10.232183
HW 5.445014 -5.114803 10.230614
OW 6.474005 3.435136 -3.394374
HW 5.867438 4.170374 -3.483514
HW 7.323627 3.792337 -3.653208
OW 10.012726 -10.042197 6.948344
HW 9.975912 -10.998784 6.942761
HW 9.095879 -9.766871 6.954044
OW -4.870733 -5.052942 -10.992371
HW -5.633640 -5.630833 10.986184
HW -4.119723 -5.646035 10.981730
OW 2.245446 -2.913249 7.783577
HW 2.627455 -3.610453 8.316889
HW 2.658495 -3.013667 6.925818
OW 4.321484 4.199293 5.257765
HW 3.515995 4.441862 5.714703
HW 4.535843 4.965960 4.726055
OW -4.577256 9.054646 -10.194943
HW -5.365889 9.541086 -10.435523
HW -4.468993 8.411480 -10.895700
OW 10.647690 7.268017 -10.504377
HW 10.136358 8.065117 -10.364317
HW 9.998480 6.604594 -10.738558
OW -1.835435 8.530329 10.059163
HW -1.721179 8.457317 -10.993177
HW -1.613145 7.661935 9.723121
OW -6.724099 -4.622294 -2.292737
HW -6.144957 -4.201298 -2.928191
HW -6.147610 -4.869009 -1.569386
OW 1.626937 -8.637886 1.584829
HW 1.577962 -7.707584 1.364409
HW 2.525869 -8.765525 1.888267
OW 7.833153 -2.518495 0.685326
HW 7.421570 -2.780215 1.509065
HW 7.393596 -3.046940 0.019008
OW 7.917741 6.945736 -2.994484
HW 8.379498 6.153423 -2.719775
HW 7.035984 6.645231 -3.215044
OW 7.346221 -5.434387 5.541626
HW 8.129294 -5.983874 5.577769
HW 6.617602 -6.048975 5.630176
OW 8.833847 -8.706212 1.482825
HW 8.000474 -8.539373 1.042257
HW 8.789852 -9.627745 1.738335
OW 8.724435 -2.533903 4.489885
HW 9.025823 -3.380284 4.820412
HW 7.778238 -2.638836 4.389155
OW 0.518201 -5.695569 -6.519502
HW 1.364337 -5.915467 -6.129446
HW 0.569264 -4.754698 -6.688615
OW -1.915377 8.927333 -2.347680
HW -2.245821 9.544661 -3.000489
HW -1.960588 9.406320 -1.520049
OW 8.988050 -6.103716 10.969779
HW 8.042304 -6.233406 -10.958175
HW 9.104268 -5.154623 -10.983747
OW 9.645527 0.019346 10.565439
HW 8.827904 0.094444 -10.942323
HW 9.474188 0.480123 9.743993
OW 8.907280 -5.349638 -0.296476
HW 9.485351 -4.689538 -0.679288
HW 9.474607 -5.858275 0.283070
OW -2.571391 -3.513105 10.197271
HW -2.951834 -3.084106 10.963865
HW -1.678566 -3.732859 10.463761
OW 8.522705 9.273594 -7.450591
HW 8.324239 8.964261 -6.566640
HW 9.466514 9.433603 -7.442495
OW -8.481180 -2.841772 -3.433022
HW -9.129991 -2.145599 -3.328946
HW -8.994581 -3.615137 -3.667054
OW -2.819740 -7.640603 2.521638
HW -2.773866 -8.443431 3.041069
HW -3.735665 -7.583154 2.249196
OW 3.211374 -9.226302 -2.685852
HW 4.149507 -9.372258 -2.563175
HW 2.838307 -10.105518 -2.751003
OW -8.661927 5.091826 -2.297306
HW -7.705791 5.069754 -2.339263
HW -8.861840 5.881947 -1.795123
OW -10.092760 4.718866 -10.141346
HW -10.683837 4.191654 -10.679045
HW -9.861539 4.147883 -9.408571
OW 5.723611 8.185306 10.916983
HW 4.861647 8.595572 10.988713
HW 6.342747 8.907214 -10.973636
OW 4.484577 2.213303 7.266193
HW 4.009665 1.570456 6.739266
HW 5.200925 1.716793 7.662133
OW -2.778276 6.226519 5.911019
HW -2.145593 6.944250 5.879064
HW -2.398024 5.546585 5.354653
OW -8.652228 3.832417 9.502874
HW -8.695081 4.788706 9.491868
HW -7.770797 3.628166 9.190133
OW -4.265839 0.550332 7.343384
HW -4.077126 -0.264640 6.877924
HW -4.674588 0.269755 8.162313
OW -3.002073 -5.612765 8.469845
HW -2.052203 -5.685692 8.564051
HW -3.289714 -6.498203 8.246895
OW -2.039301 8.523008 -5.550311
HW -1.241449 9.051896 -5.562738
HW -2.747140 9.153448 -5.684309
OW 7.481193 3.738717 -8.483378
HW 7.899759 4.570182 -8.706790
HW 6.567797 3.851526 -8.746868
OW 9.070067 1.599517 -2.561452
HW 9.464390 0.730100 -2.632649
HW 8.129837 1.431853 -2.495880
OW 5.279095 -3.509272 7.595428
HW 6.087531 -3.306000 7.124731
HW 5.216524 -4.464005 7.563556
OW 1.838096 7.578743 10.777162
HW 0.885371 7.592837 10.869683
HW 2.115054 8.464511 -10.987987
OW 1.821580 9.791630 5.649307
HW 1.660874 8.859900 5.499311
HW 2.751821 9.842193 5.869623
OW 5.726162 8.055127 -6.250151
HW 4.785442 7.890242 -6.184544
HW 6.031312 8.067955 -5.342867
OW 5.316226 5.695888 7.873059
HW 5.823088 5.629133 7.063689
HW 4.974887 4.812973 8.015862
OW -1.255325 7.846365 -8.353084
HW -2.175718 7.585820 -8.391014
HW -1.278466 8.801986 -8.301147
OW -8.149040 -4.286724 6.511461
HW -8.370519 -5.050689 7.044141
HW -8.182798 -4.605331 5.609355
OW 10.785975 -1.719243 -5.071292
HW 10.005610 -2.175928 -5.385800
HW 10.489126 -0.824732 -4.903431
OW -7.514876 8.770664 7.548693
HW -8.009933 9.587330 7.482212
HW -8.184040 8.088148 7.601943
OW 7.904795 8.763722 1.827605
HW 8.626956 8.380791 2.325895
HW 7.665924 8.087632 1.193345
OW 10.945422 -3.036820 9.333426
HW -10.999902 -3.267138 10.261008
HW 10.982752 -2.080316 9.321142
OW -5.533370 1.450410 10.861656
HW -5.820746 1.893188 10.063028
HW -5.707901 0.523462 10.698097
OW -9.974825 -7.678421 1.571047
HW -10.325282 -7.492657 2.442320
HW -10.094245 -6.862137 1.085388
OW -1.109674 -8.264332 8.410555
HW -0.205818 -7.983824 8.266315
HW -1.060846 -9.219539 8.451059
OW -9.636185 6.510430 0.892948
HW -8.745256 6.661099 1.209157
HW -10.145871 7.233887 1.258016
OW 1.760245 -2.062875 10.599026
HW 1.759556 -1.109888 10.689916
HW 0.953939 -2.258910 10.121651
OW -1.179784 5.246457 -9.444973
HW -2.032727 4.942630 -9.134133
HW -1.374713 5.725181 -10.250747
OW 5.712914 -5.311371 -9.039554
HW 5.099253 -4.578708 -9.094958
HW 6.577827 -4.901172 -9.049874
OW -5.961599 2.712997 -6.143975
HW -5.239962 2.451238 -5.571989
HW -6.309926 1.888421 -6.483368
OW 7.870165 -2.481951 10.989888
HW 7.102517 -3.053877 10.982018
HW 8.313266 -2.663740 10.160997
OW 6.631738 -2.578137 -7.579096
HW 6.539757 -2.215481 -8.460269
HW 7.575613 -2.583907 -7.419375
OW 8.003859 2.717439 -10.995998
HW 8.722247 3.349263 10.969910
HW 7.246091 3.197510 10.669689
OW -5.946199 -10.067204 3.389899
HW -6.501998 -9.780218 4.114586
HW -5.057447 -9.842334 3.665576
OW 6.221510 0.662551 -10.274630
HW 5.620196 1.016587 -10.930012
HW 6.163019 -0.286764 -10.383371
OW 5.460201 -0.740432 6.359792
HW 5.734611 -1.010622 5.483355
HW 4.580486 -1.104796 6.458713
OW -0.396850 -10.449783 -2.652207
HW 0.151386 -10.057991 -3.332193
HW 0.199635 10.988317 -2.157314
OW -2.302186 -0.814431 9.481487
HW -1.482590 -0.996821 9.941313
HW -2.041379 -0.286830 8.726462
OW 3.868636 -3.733289 -6.758274
HW 3.907383 -4.605899 -6.366489
HW 2.977287 -3.431112 -6.583262
OW -3.812981 -7.019098 -0.473212
HW -3.895339 -6.842122 -1.410411
HW -2.951059 -7.425249 -0.380608
OW -7.504431 -9.537645 -10.999094
HW -7.474488 -10.494488 -10.999010
HW -6.822798 -9.276358 10.381592
OW -4.059157 10.823457 -7.452557
HW -4.568032 10.998518 -8.244292
HW -3.149412 10.961401 -7.716717
OW 5.708002 -5.703450 0.445959
HW 6.014950 -5.137961 1.154796
HW 6.207283 -6.513353 0.551886
OW 8.879699 0.876879 0.269153
HW 8.733399 1.816533 0.159191
HW 8.029368 0.478335 0.083290
OW -10.998560 -6.194253 -2.410914
HW -10.970243 -5.347790 -2.857170
HW -10.998968 -6.838739 -3.118786
OW -9.728701 -1.653166 6.139248
HW -9.829564 -2.309003 5.449213
HW -10.543535 -1.703690 6.639186
OW 0.856026 5.464082 5.851894
HW 0.137206 4.976232 6.254069
HW 0.542419 6.367883 5.816682
OW 8.770330 -9.488370 9.998521
HW 9.643140 -9.664475 9.646903
HW 8.580473 -8.589293 9.730082
OW -0.881504 -7.618721 -4.070542
HW -1.713497 -7.325849 -3.698441
HW -0.367929 -6.817026 -4.170397
OW -5.650435 5.917948 -5.014510
HW -6.513420 5.589243 -4.762209
HW -5.090618 5.141417 -5.021597
OW -3.166089 1.807361 -8.554875
HW -4.083380 1.534146 -8.574276
HW -2.860071 1.558552 -7.682584
OW -8.967147 9.548391 -9.096095
HW -9.523371 8.769289 -9.103783
HW -9.578926 10.280684 -9.173017
OW -3.431752 10.298865 1.763570
HW -2.837327 -10.996692 2.022153
HW -3.288903 10.197805 0.822386
OW 4.411866 7.577829 5.721153
HW 3.697107 7.144764 6.188079
HW 4.087978 7.677341 4.825809
