175
Lattice="22.000000 0.0 0.0  0.0 22.000000 0.0  0.0 0.0 22.000000" Origin="-11.000000 -11.000000 -11.000000" pbc="T T T" Properties=species:S:1:pos:R:3 lattice_constant=3.5670 diameter_nm=1.0000 rg_angstrom=4.3923 d_equiv_rg_nm=1.1341 r_max_angstrom=6.3877 r_inscribed_angstrom=4.7194 config_hash=b20309ea21e1 seed=1 shape=wulff wulff_ratio=0.99 termination=mixed oh_o_ratio=4 n_water=272 n_water_source=derived_from_box box_nm=2.200000 box_source=explicit water_density=1 nv=1 rotate_111=1 manifest=diamond_water.manifest.json
CS -4.219806 1.130694 -0.000000
CS -4.219806 1.130694 1.544556
CS -3.842908 -0.275908 -2.574261
CS -3.842908 -0.275908 2.059408
CS -3.466011 -1.682511 -2.059408
CS -3.466011 -1.682511 -0.514852
CS -3.190102 2.160398 -2.574261
CS -3.190102 2.160398 2.059408
CS -3.089113 -3.089113 -0.000000
CS -3.089113 -3.089113 1.544556
C -2.813204 0.753796 -2.059408
C -2.813204 0.753796 -0.514852
C -2.436306 -0.652806 -0.000000
C -2.436306 -0.652806 1.544556
CS -2.160398 3.190102 -2.059408
CS -2.160398 3.190102 -0.514852
CS -2.059408 -2.059408 -2.574261
C -2.059408 -2.059408 2.059408
CS -2.059408 -2.059408 3.603965
C -1.783500 1.783500 0.000000
C -1.783500 1.783500 1.544556
CS -1.682511 -3.466011 -2.059408
CS -1.682511 -3.466011 -0.514852
CS -1.406602 0.376898 -4.118817
C -1.406602 0.376898 -2.574261
C -1.406602 0.376898 2.059408
CS -1.406602 0.376898 3.603965
CS -1.130694 4.219806 0.000000
CS -1.130694 4.219806 1.544556
C -1.029704 -1.029704 -2.059408
C -1.029704 -1.029704 -0.514852
CS -1.029704 -1.029704 4.118817
CS -0.753796 2.813204 -2.574261
C -0.753796 2.813204 2.059408
CS -0.753796 2.813204 3.603965
C -0.652806 -2.436306 -0.000000
C -0.652806 -2.436306 1.544556
C -0.376898 1.406602 -2.059408
C -0.376898 1.406602 -0.514852
CS -0.376898 1.406602 4.118817
CS -0.275908 -3.842908 -2.574261
OS -0.275908 -3.842908 2.059408
CS 0.000000 0.000000 -4.633669
N -0.000000 -0.000000 1.544556
CS 0.275908 3.842908 -2.059408
CS 0.275908 3.842908 -0.514852
CS 0.376898 -1.406602 -4.118817
C 0.376898 -1.406602 -2.574261
C 0.376898 -1.406602 2.059408
CS 0.376898 -1.406602 3.603965
C 0.652806 2.436306 0.000000
C 0.652806 2.436306 1.544556
C 0.753796 -2.813204 -2.059408
C 0.753796 -2.813204 -0.514852
OS 1.029704 1.029704 -4.118817
C 1.029704 1.029704 -2.574261
C 1.029704 1.029704 2.059408
CS 1.029704 1.029704 3.603965
CS 1.130694 -4.219806 -0.000000
CS 1.130694 -4.219806 1.544556
C 1.406602 -0.376898 -2.059408
C 1.406602 -0.376898 -0.514852
CS 1.406602 -0.376898 4.118817
CS 1.682511 3.466011 -2.574261
CS 1.682511 3.466011 2.059408
C 1.783500 -1.783500 0.000000
C 1.783500 -1.783500 1.544556
C 2.059408 2.059408 -2.059408
C 2.059408 2.059408 -0.514852
OS 2.160398 -3.190102 -2.574261
CS 2.160398 -3.190102 2.059408
C 2.436306 0.652806 0.000000
C 2.436306 0.652806 1.544556
CS 2.813204 -0.753796 -2.574261
C 2.813204 -0.753796 2.059408
CS 2.813204 -0.753796 3.603965
OS 3.089113 3.089113 0.000000
CS 3.089113 3.089113 1.544556
CS 3.190102 -2.160398 -2.059408
CS 3.190102 -2.160398 -0.514852
OS 3.466011 1.682511 -2.574261
CS 3.466011 1.682511 2.059408
CS 3.842908 0.275908 -2.059408
CS 3.842908 0.275908 -0.514852
CS 4.219806 -1.130694 0.000000
OS 4.219806 -1.130694 1.544556
H -4.485568 2.123444 -0.363204
H -4.946338 0.403827 -0.363204
O -5.522084 1.479638 2.021223
H -4.835465 -0.009954 -2.210669
O -3.842562 -0.276001 -4.004260
H -4.569511 -1.002511 1.695817
H -3.842715 -0.275715 3.149408
O -4.419344 -2.635844 -2.536075
O -4.768288 -1.333566 -0.038185
H -4.182659 2.426353 -2.210669
O -3.189755 2.160305 -4.004260
H -3.190031 2.160133 3.149408
H -3.456057 3.152955 1.695817
H -3.815779 -3.815779 -0.363333
H -2.822893 -4.081740 1.907761
O -4.391367 -2.739852 2.021054
O -2.509342 4.492380 -2.536075
O -3.462675 3.539046 -0.038185
H -2.059408 -2.059408 -3.664261
H -1.793189 -3.052036 3.967169
O -3.361663 -1.710148 4.080462
O -2.635844 -4.419344 -2.536075
H -1.416532 -4.458656 -0.151519
H -1.672363 1.369648 -4.482021
H -2.133133 -0.349969 -4.482021
O -2.708880 0.725842 4.080631
H -1.396672 5.212451 -0.363333
H -2.123444 4.485568 1.907761
H -0.403827 4.946338 1.907761
H -1.029704 -1.029704 5.208817
O -0.753796 2.813204 -4.004261
H -1.746546 3.078965 3.967169
O 0.199800 3.766360 4.080462
H -0.376898 1.406602 5.208817
H -0.275979 -3.842644 -3.664260
H -0.009954 -4.835465 -2.210669
O -0.000000 -0.000000 -6.063669
O -0.073036 5.145186 -2.536075
O 1.229242 4.796242 -0.038185
H 1.369648 -1.672363 -4.482021
H -0.349969 -2.133133 -4.482021
H 0.642876 -2.399247 3.967298
H 1.756371 1.756371 3.967298
H 2.123444 -4.485568 -0.363204
H 0.403827 -4.946338 -0.363204
O 1.479638 -5.522084 2.021223
H 1.406602 -0.376898 5.208817
O 2.635759 4.419259 -2.097255
H 1.682317 3.465817 -3.664260
H 1.682581 3.465746 3.149408
H 1.416556 4.458567 1.695817
H 3.152955 -3.456057 1.695817
O 2.160051 -3.190009 3.489408
O 2.813204 -0.753796 -4.004261
H 3.078965 -1.746546 3.967169
O 3.766360 0.199800 4.080462
H 3.815779 3.815779 1.907890
O 4.492380 -2.509342 -2.536075
O 3.539046 -3.462675 -0.038185
O 4.768172 1.333597 1.582403
H 3.465746 1.682581 3.149408
H 4.835554 0.009930 -2.422742
H 4.569575 1.002575 -0.151519
O 5.522084 -1.479638 -0.476667
H 3.884894 -0.021265 5.007112
H -3.878907 -2.512116 3.976021
H -0.175598 4.091917 4.901857
H -3.997045 1.699840 -4.244791
H -4.757849 -0.114876 -4.244858
H 5.291230 1.212552 2.378241
H 4.480728 -3.467904 -2.587287
H -5.223456 -0.991441 -0.811085
H -5.446123 2.402586 2.274200
H -0.003627 5.078119 -3.491211
H 5.773656 -0.748513 -1.045673
H -3.308095 3.910075 0.833619
H 3.223850 -4.060597 -0.719904
H 0.807026 5.647467 -0.175110
H -3.201963 -0.097521 4.057342
H -4.975035 -2.922379 1.281043
H -1.338489 3.535671 -4.244625
H 0.361136 -0.856391 -6.304034
H 1.835789 -4.061037 3.729751
H 3.085744 -1.642360 -4.244625
H -3.277096 4.346517 -3.093639
H 3.445995 3.915740 -1.989617
H -2.441984 -5.220116 -2.043345
H -5.236212 -2.138315 -2.618491
H 2.240013 -5.775661 1.492898
