          30
  Built with Packmol                                             
  C           -7.139850       -8.551484       -7.166416
  C           -8.148456       -7.441583       -6.773493
  C           -9.102120       -8.079741       -5.714860
  C           -9.063709       -7.097644       -7.980662
  C           -8.488329       -6.103700       -8.977513
  O           -7.569849       -6.704940       -9.885234
  C           -7.910977       -4.880143       -8.283058
  C           -6.969281       -5.173215       -7.082827
  C           -5.531513       -5.457540       -7.588334
  C           -6.891790       -3.827751       -6.294697
  N           -7.577688       -6.198758       -6.203229
  O           -6.683628       -6.516162       -5.122632
  H           -7.659928       -9.398236       -7.630876
  H           -6.614635       -8.953443       -6.292123
  H           -6.378915       -8.224778       -7.871599
  H           -8.559399       -8.466914       -4.844920
  H           -9.657887       -8.921194       -6.146483
  H           -9.839032       -7.353133       -5.351209
  H           -9.349173       -8.017980       -8.506620
  H           -9.996413       -6.657676       -7.598523
  H           -9.312732       -5.762137       -9.615440
  H           -6.826200       -7.018213       -9.347638
  H           -7.392176       -4.253319       -9.019997
  H           -8.765438       -4.289660       -7.921444
  H           -5.430789       -6.400878       -8.120319
  H           -4.806111       -5.474400       -6.766554
  H           -5.201536       -4.669052       -8.275787
  H           -6.168626       -3.867813       -5.472095
  H           -7.865823       -3.557292       -5.868837
  H           -6.583210       -3.006448       -6.953071
