30
TEMPOL_syn 4-hydroxy-TEMPO C9H18NO2; nitroxide N-O syn to the C4 hydroxyl across the ring plane; MMFF94 27.36 kcal/mol
C    1.582788  -1.193558   0.973886
C    1.263496  -0.373653  -0.304207
C    2.468956  -0.694777  -1.248517
C    1.291781   1.138449   0.018390
C    0.065093   1.602021   0.796585
O    0.100747   3.033446   0.920705
C   -1.234730   1.193261   0.112020
C   -1.295903  -0.318128  -0.209358
C   -2.580694  -0.585227  -1.061385
C   -1.554980  -1.125485   1.090167
N   -0.049588  -0.807357  -0.887497
O   -0.089591  -0.320466  -2.251977
H    1.039902  -0.858787   1.856590
H    2.642711  -1.107998   1.244982
H    1.378002  -2.259782   0.822050
H    2.461142  -0.096013  -2.166185
H    2.478996  -1.754758  -1.529685
H    3.424379  -0.476071  -0.755592
H    2.195670   1.394977   0.587312
H    1.369273   1.725345  -0.907653
H    0.094466   1.211447   1.817836
H    0.074027   3.366064   0.005022
H   -1.355030   1.784447  -0.806693
H   -2.082091   1.487782   0.745843
H   -3.486662  -0.326130  -0.499483
H   -2.657409  -1.643329  -1.339329
H   -2.614862   0.014102  -1.978081
H   -1.408358  -2.199332   0.925310
H   -2.587241  -0.994535   1.438792
H   -0.934293  -0.815956   1.929753
