30
TEMPOL_anti 4-hydroxy-TEMPO C9H18NO2; nitroxide N-O anti to the C4 hydroxyl across the ring plane; MMFF94 24.87 kcal/mol
C   -2.495314  -0.870368   0.901841
C   -1.298456  -0.364154   0.044937
C   -1.661894  -0.618356  -1.439618
C   -1.228000   1.163390   0.288970
C    0.054511   1.784509  -0.242528
O    0.077174   3.180844   0.093390
C    1.259872   1.100251   0.383579
C    1.271184  -0.429368   0.142655
C    1.732903  -0.704511  -1.310522
C    2.372372  -0.993902   1.086948
N   -0.045614  -0.988097   0.540057
O   -0.072407  -2.404981   0.299040
H   -2.299638  -0.745212   1.973774
H   -2.715724  -1.928644   0.721767
H   -3.408566  -0.308800   0.670290
H   -0.949180  -0.177971  -2.137062
H   -1.744385  -1.685967  -1.669733
H   -2.636639  -0.173068  -1.675609
H   -1.302409   1.377713   1.365437
H   -2.091638   1.673385  -0.158842
H    0.094602   1.728820  -1.333945
H    0.041249   3.220851   1.064823
H    2.179727   1.564984   0.003590
H    1.263125   1.312603   1.462999
H    1.098398  -0.229941  -2.059198
H    2.744045  -0.309617  -1.470994
H    1.778444  -1.775371  -1.535765
H    2.551924  -2.062330   0.922088
H    3.327833  -0.479763   0.926454
H    2.102500  -0.856927   2.141177
