30
TEMPOL 4-hydroxy-TEMPO nitroxide radical C9H18NO2 (MMFF94, RDKit ETKDG)
C   -1.770270   0.546006   1.285130
C   -1.333877   0.013327  -0.103887
C   -2.601063   0.088248  -1.012760
C   -0.994336  -1.499954  -0.014815
C    0.412596  -1.829488   0.459153
O    0.548943  -1.747521   1.874689
C    1.461257  -1.012599  -0.279560
C    1.178046   0.511861  -0.374704
C    1.655871   1.225981   0.915749
C    2.107464   1.022736  -1.520399
N   -0.230281   0.739065  -0.775432
O   -0.513496   2.148505  -0.807773
H   -2.547932  -0.095655   1.717225
H   -2.201110   1.551913   1.219255
H   -0.962283   0.593499   2.011727
H   -3.010961   1.102923  -1.073290
H   -3.398780  -0.557117  -0.624984
H   -2.380054  -0.243071  -2.034829
H   -1.724356  -2.008962   0.627931
H   -1.102065  -1.942321  -1.015936
H    0.597836  -2.886445   0.231592
H    0.389856  -0.819715   2.107134
H    2.444516  -1.181577   0.178470
H    1.520204  -1.421886  -1.298652
H    1.057449   0.994351   1.793973
H    1.651477   2.316524   0.803896
H    2.689026   0.943709   1.152615
H    2.081948   2.113697  -1.622366
H    1.823345   0.591170  -2.488011
H    3.151030   0.742796  -1.331140
